#
# Three quintuple layers of Bi2Se3 to test the calculation of the spin texture.
# This calculation will produce HSX and WFSX files that can be processed by
# the Util/COOP/spin_texture utility program.
#
# (thanks to Roberto Robles)
#
SystemName   bi2se3_3ql
SystemLabel  bi2se3_3ql

# Geom
NumberOfAtoms       15
NumberOfSpecies      2
%block ChemicalSpeciesLabel
   1  83 Bi
   2  34 Se
%endblock ChemicalSpeciesLabel
LatticeConstant   4.13800000 Ang
%block LatticeVectors
     1.0000000000000000    0.0000000000000000    0.0000000000000000
    -0.5000000000000000    0.8660254037844386    0.0000000000000000
     0.0000000000000000    0.0000000000000000   11.7544706113098112
%endblock LatticeVectors
AtomicCoordinatesFormat Fractional
%block AtomicCoordinatesAndAtomicSpecies
  0.6666666666666667  0.3333333333333333  0.2650624783220366   1   1  Bi
  0.3333333333333333  0.6666666666666667  0.3423936279930260   1   2  Bi
  0.3333333333333333  0.6666666666666667  0.4613344252566094   1   3  Bi
  0.0000000000000000  0.0000000000000000  0.5386655576677342   1   4  Bi
  0.0000000000000000  0.0000000000000000  0.6576063590530268   1   5  Bi
  0.6666666666666667  0.3333333333333333  0.7349374737996754   1   6  Bi
  0.3333333333333333  0.6666666666666667  0.2287521714264216   2   7  Se
  0.0000000000000000  0.0000000000000000  0.3037280662035826   2   8  Se
  0.6666666666666667  0.3333333333333333  0.3787039395991627   2   9  Se
  0.0000000000000000  0.0000000000000000  0.4250241177721818   2  10  Se
  0.6666666666666667  0.3333333333333333  0.5000000000000000   2  11  Se
  0.3333333333333333  0.6666666666666667  0.5749758645633420   2  12  Se
  0.6666666666666667  0.3333333333333333  0.6212960521574118   2  13  Se
  0.3333333333333333  0.6666666666666667  0.6962719343852299   2  14  Se
  0.0000000000000000  0.0000000000000000  0.7712478166130481   2  15  Se
%endblock AtomicCoordinatesAndAtomicSpecies

# Basis 
PAO.EnergyShift  100 meV   ! Extension of AOs (smaller => more extended)
PAO.SplitNorm      0.15
PAO.SplitNormH      0.50
PAO.SoftDefault      T
%block PAO.Basis
 Se   3
   n=4   0   2   ! n,l,#zetas
    0.0   0.0    ! default
   n=4   1   2
    0.0   0.0
   n=3   2   1
    0.0
 Bi   3  
   n=6   0   2
    0.0   0.0
   n=6   1   2
    0.0   0.0
   n=5   2   1
    0.0
%endblock PAO.Basis

xc.functional         GGA          # Exchange-correlation functional
xc.authors            PBE          # Exchange-correlation version

%block DM.InitSpin
 1  0.  0. 0.
 2  0.  0. 0.
 3  0.  0. 0.
 4  0.  0. 0.
 5  0.  0. 0.
 6  0.  0. 0.
 7  0.  0. 0.
 8  0.  0. 0.
 9  0.  0. 0.
10  0.  0. 0.
11  0.  0. 0.
12  0.  0. 0.
13  0.  0. 0.
14  0.  0. 0.
15  0.  0. 0.
%endblock DM.InitSpin

SolutionMethod  diagon

%block kgrid_Monkhorst_Pack
   3   0   0   0.0
   0   3   0   0.0
   0   0   1   0.0
%endblock kgrid_Monkhorst_Pack

 ################ SCF options #############
SolutionMethod  diagon
ElectronicTemperature   0.0010 eV
MaxSCFIterations   300
DM.NumberPulay   3
DM.MixingWeight     0.0100
MeshCutoff        300.0000 Ry
DM.Tolerance        1.E-4
SCF.H.Converge  F
UseSaveData     F
DM.UseSaveDM    T
SpinOrbit       T

# ---- SPIN TEXTURE
#
# We use a 'BandPoints' block to generate the states at chosen k-points
# These keywords are necessary to generate the HSX and WFSX files
#
SaveHS T
WFS.Write.For.Bands T      
#
# These keywords could be used to limit the number of bands stored in the WFSX file
#
###  Wfs.band.min 1
###  Wfs.band.max 8
#
BandLinesScale      pi/a
%block BandPoints
    0.01200000000000    0.00000000000000    0.00000000000000             1
    0.01181769302603    0.00208377818940    0.00000000000000             1
    0.01127631140956    0.00410424182944    0.00000000000000             1
    0.01039230475799    0.00600000015142    0.00000000000000             1
    0.00919253316758    0.00771345149482    0.00000000000000             1
    0.00771345109301    0.00919253350474    0.00000000000000             1
    0.00599999969716    0.01039230502026    0.00000000000000             1
    0.00410424133654    0.01127631158897    0.00000000000000             1
    0.00208377767283    0.01181769311711    0.00000000000000             1
   -0.00000000052454    0.01200000000000    0.00000000000000             1
   -0.00208377870597    0.01181769293494    0.00000000000000             1
   -0.00410424232235    0.01127631123016    0.00000000000000             1
   -0.00600000060568    0.01039230449572    0.00000000000000             1
   -0.00771345189664    0.00919253283041    0.00000000000000             1
   -0.00919253384191    0.00771345069119    0.00000000000000             1
   -0.01039230528253    0.00599999924290    0.00000000000000             1
   -0.01127631176837    0.00410424084364    0.00000000000000             1
   -0.01181769320820    0.00208377715626    0.00000000000000             1
   -0.01200000000000   -0.00000000104907    0.00000000000000             1
   -0.01181769284386   -0.00208377922254    0.00000000000000             1
   -0.01127631105076   -0.00410424281525    0.00000000000000             1
   -0.01039230423345   -0.00600000105994    0.00000000000000             1
   -0.00919253249324   -0.00771345229846    0.00000000000000             1
   -0.00771345028937   -0.00919253417907    0.00000000000000             1
   -0.00599999878863   -0.01039230554480    0.00000000000000             1
   -0.00410424035073   -0.01127631194777    0.00000000000000             1
   -0.00208377663970   -0.01181769329928    0.00000000000000             1
    0.00000000157361   -0.01200000000000    0.00000000000000             1
    0.00208377973910   -0.01181769275277    0.00000000000000             1
    0.00410424330815   -0.01127631087136    0.00000000000000             1
    0.00600000151421   -0.01039230397119    0.00000000000000             1
    0.00771345270028   -0.00919253215608    0.00000000000000             1
    0.00919253451624   -0.00771344988755    0.00000000000000             1
    0.01039230580706   -0.00599999833437    0.00000000000000             1
    0.01127631212717   -0.00410423985783    0.00000000000000             1
    0.01181769339037   -0.00208377612313    0.00000000000000             1
%endblock BandPoints
