SystemLabel elec-x

SolutionMethod diagon

%block kgrid_Monkhorst_Pack
    100    0    0    0.0
      0    1    0    0.0
      0    0    1    0.0
%endblock kgrid_Monkhorst_Pack

NumberOfAtoms 4
NumberOfSpecies 1
LatticeConstant 1.0 Ang
AtomicCoordinatesFormat Ang
%block LatticeVectors
    5.08      0.0000      0.0000
    0.0000   12.0000      0.0000
    0.0000    0.0000     12.0000
%endblock LatticeVectors
%block AtomicCoordinatesAndAtomicSpecies
 0.00   0.0   0.0 1
 1.27   0.0   0.0 1
 2.54   0.0   0.0 1
 3.81   0.0   0.0 1
%endblock AtomicCoordinatesAndAtomicSpecies

%block ChemicalSpeciesLabel
 1  6  C
%endblock ChemicalSpeciesLabel
%block PS.Lmax
  C 2
%endblock

PAO.BasisType         split
PAO.BasisSize         SZP
PAO.SplitNorm         0.15
PAO.EnergyShift       275 meV

MeshCutoff              250. Ry
XC.functional           LDA
XC.authors              PZ
SolutionMethod          transiesta

ElectronicTemperature   300 K
OccupationFunction      FD

MinSCFIterations       3
MaxSCFIterations       200
DM.MixingWeight        0.05
DM.Tolerance           0.0001
DM.NumberPulay         6
DM.UseSaveDM           .true.
DM.MixSCF1             .true.

MD.NumCGSteps 0

WriteMullikenPop                1
WriteDM                         T
WriteBands                      F
WriteKBands                     F
WriteCoorInitial                F
WriteMDhistory                  F
WriteWaveFunctions              F
WriteCoorXmol                   F
WriteForces                     T
SaveHS                          T
