Systemlabel  born_spin
Systemname   si2 Force constants + Born charges -- spin-polarized

LongOutput T
SpinPolarized T

%include FC.fdf
BornCharge T
%block PolarizationGrids
7  3  3
3  7  3
3  3  7
%endblock PolarizationGrids

NumberOfSpecies 1

%block chemicalspecieslabel
1 14 Si
%endblock chemicalspecieslabel

PAO.BasisSize SZ

MeshCutoff 130.0 Ry

# In a real calculation, a high degree of self-consistency should be achieved
#DM.MixingWeight  0.3
#DM.NumberPulay    3
#DM.Tolerance     1.0d-5   
# Here we use Harris since we are just interested in testing the displacement
# logic

HarrisFunctional T

