NumberOfAtoms          2

LatticeConstant   10.2612169463  Bohr

%block LatticeVectors
   0.0000000000     0.5000000000     0.5000000000
   0.5000000000     0.0000000000     0.5000000000
   0.5000000000     0.5000000000     0.0000000000
%endblock LatticeVectors

AtomicCoordinatesFormat  Fractional

%block AtomicCoordinatesAndAtomicSpecies
 0.0 0.0 0.0   1
 0.25 0.25 0.25 1
%endblock AtomicCoordinatesAndAtomicSpecies

MD.TypeOfRun           FC
MD.FCfirst             1
MD.FClast              2
MD.FCdispl             0.0400000000  Bohr
