NumberOfSpecies     1

%block ChemicalSpeciesLabel
 1  8  O_sz      # Species index, atomic number, species label
%endblock ChemicalSpeciesLabel

PAO.basis-size SZ
PAO.energy-shift 300 meV
