############# Ag(111)/Cr ###################
SystemLabel      AGCR
NumberOfAtoms    3
NumberOfSpecies  1

%block ChemicalSpeciesLabel
    1   24  Cr
%endblock ChemicalSpeciesLabel

LatticeConstant 5.77810 Ang

%block LatticeParameters
  1.000000  1.000000  3.771897  90.000000  90.000000  120.000000
%endblock LatticeParameters

AtomicCoordinatesFormat Ang

%block AtomicCoordinatesAndAtomicSpecies
0.000078	-0.000047	-0.024346	1
0.000163	3.335886	0.074130	1
2.889124	1.667948	-0.049784	1
%endblock AtomicCoordinatesAndAtomicSpecies


PAO.OldStylePolOrbs 	F
Restricted.Radial.Grid  F

%Block PAO.Basis
Cr   3
n=4   0   2
	0.0   0.0
n=4   1   2
	0.0   0.0
n=3   2   2
	0.0   0.0
%endblock PAO.Basis


%block DM.InitSpin
 1 +3.73  90.0  60.0
 2 +3.73  90.0 -60.0
 3 +3.73  90.0 180.0
%endblock DM.InitSpin
Spin    SO


WriteMullikenPop     1
WriteForces       .true.
WriteMDXmol       .true.

%block kgrid_Monkhorst_Pack
  15     0   0    0.0
   0    15   0    0.0
   0     0   1    0.0
%endblock kgrid_Monkhorst_Pack

BandLinesScale ReciprocalLatticeVectors
%block BandLines
    1  0.000  0.000  0.000  \Gamma
   25  0.000  0.500  0.000  X
   25  0.500  0.500  0.000  M
   25  0.000  0.000  0.000  \Gamma
%endblock BandLines

MeshCutoff             1200. Ry        # Mesh cutoff. real space mesh 

xc.functional         GGA
xc.authors            PW91
MaxSCFIterations      2000           # Maximum number of SCF iter
DM.MixingWeight       0.004          # New DM amount for next SCF cycle
DM.Tolerance          1.d-4         # Tolerance in maximum difference between input and output DM
DM.NumberPulay         8
DM.UseSaveDM           T            # To use continuation files
SolutionMethod        diagon        # OrderN or Diagon
Diag.DivideAndConquer .true.
ElectronicTemperature  300 K        # Temp. for Fermi smearing

MD.TypeOfRun           cg           # Type of dynamics:
MD.NumCGsteps          0            # Number of CG steps for coordinate optimization

%block ProjectedDensityOfStates
   -10.00 4.00  0.100  1000  eV
%endblock ProjectedDensityOfStates


SaveTotalPotential             .true.
SaveElectrostaticPotential     .true.
SaveTotalCharge                .true.  
SaveDeltaRho                   .true.
SaveRho                        .true.
WriteDenchar         T
COOP.Write	     T

#-------------------- STM/STS section
#
STM.DensityUnits   Ele/Ang**3   # Units of Charge Density
                                     # Ele/bohr**3
                                     # Ele/Ang**3
                                     # Ele/UnitCell

STM.MinZ       3.1 Ang     # Minimum coordinate of the window in Z-dir
STM.MaxZ       4.0 Ang     # Maximum coordinate of the window in Z-dir
STM.RefZ       3.0 Ang     # Reference plane to propagate wf into vacuum
STM.VacZ       4.0 Ang     # Position at which the potential is "flat"

STM.Emin         -4.3 eV   # Energy window
STM.Emax         -2.5 eV

STM.NumberPointsX       24         # Number of points in X-axis
STM.NumberPointsY       24         # Number of points in Y-axis
STM.NumberPointsZ        3         # Number of points in Z-axis
