SystemName          wire110_2d1
SystemLabel         sinw_2

NumberOfAtoms        62
NumberOfSpecies       2

%block ChemicalSpeciesLabel
  1  14  Si
  2   1  H
%endblock ChemicalSpeciesLabel

%Block PAO.Basis
Si   2     -0.39129
 n=3   0   1   E     5.89930     4.39535
     6.00000     
     1.00000     
 n=3   1   1   E     3.55376     3.55407
     6.00000 
     1.00000 
H       1
 n=1   0   1
     0.00000
     0.75000
%EndBlock PAO.Basis

XC.functional GGA
XC.authors    PBE

LatticeConstant     3.915506 Ang
%block LatticeVectors
  7.66000   0.00000   0.00000
  0.00000   7.66000   0.00000
  0.00000   0.00000   1.00000
%endblock LatticeVectors


%block kgrid_Monkhorst_Pack
   1  0  0  0.5
   0  1  0  0.5
   0  0 18  0.5
%endblock Kgrid_Monkhorst_Pack

MeshCutoff         100.0 Ry

MaxSCFIterations     200
DM.MixingWeight      0.05
DM.NumberPulay       3
DM.Tolerance         1.d-4

SolutionMethod       diagon

WriteBands          true
BandLinesScale      ReciprocalLatticeVectors
%block BandLines
   1 0.000 0.000 0.000 \Gamma
  40 0.000 0.000 0.500 X
%endblock BandLines


MD.TypeOfRun         cg
MD.NumCGsteps       0
MD.MaxForceTol      0.02 eV/Ang
MD.VariableCell     true

# MD.UseSaveXV       true
# UseSaveData      true

Diag.ParallelOverK   true

AtomicCoordinatesFormat Ang
%block AtomicCoordinatesAndAtomicSpecies
     46.083461  33.717624       6.52206     1
     43.404511  35.611919       4.627755     1
     42.065031  37.506224       4.627763     1
     46.083461  37.506224       6.52206     1
     44.743981  35.61192        6.522067     1
     43.404511  39.400519       4.627755     1
     42.065031  41.294824       4.627763     1
     46.083461  41.294824       6.52206     1
     44.743981  39.40052        6.522067     1
     43.404511  43.189119       4.627755     1
     46.083461  45.083424       6.52206     1
     44.743981  43.18912        6.522067     1
     48.762111  31.823319       4.62775      1
     47.422631  33.717624       4.62776      1
     51.441061  33.717624       6.5220      1
     50.101581  31.82332        6.52206      1
     48.762111  35.611919       4.62775      1
     47.422631  37.506224       4.62776      1
     51.441061  37.506224       6.5220      1
     50.101581  35.61192        6.52206      1
     48.762111  39.400519       4.62775      1
     47.422631  41.294824       4.62776      1
     51.441061  41.294824       6.5220      1
     50.101581  39.40052        6.52206      1
     48.762111  43.189119       4.62775      1
     47.422631  45.083424       4.62776      1
     51.441061  45.083424       6.5220      1
     50.101581  43.18912        6.52206      1
     48.762111  46.977719       4.62775      1
     50.101581  46.97772        6.52206      1
     52.780231  33.717624       4.62776      1
     54.119711  35.611919       4.62775      1
     52.780231  37.506224       4.62776      1
     56.798661  37.506224       6.5220      1
     55.459181  35.61192        6.52206      1
     54.119711  39.400519       4.62775      1
     52.780231  41.294824       4.62776      1
     56.798661  41.294824       6.5220      1
     55.459181  39.40052        6.52206      1
     54.119711  43.189119       4.62775      1
     52.780231  45.083424       4.62776      1
     55.459181  43.18912        6.52206      1
    45.2328912  32.51474096     6.52206444    2
    42.5539412  34.409041675    4.6277600     2
    41.21465805 37.506224       3.42488059    2
    41.21465805 37.506224       5.83064159    2
    41.21465805 41.294824       3.42488059    2
    41.21465805 41.294824       5.83064159    2
    42.5539412  44.392002675    4.6277600    2
    45.2328912  46.28630196     6.52206444    2
    47.9115412  30.620441675    4.6277600     2
    50.9521508  30.62044204     6.52206255    2
    47.9115412  48.180602675    4.6277600    2
    50.9521508  48.18060304     6.52206255    2
    53.6308008  32.514740325    4.6277579     2
    57.64903395 37.506224       5.31918140    2
    57.64903395 37.506224       7.72494240    2
    56.3097508  34.40904204     6.52206255    2
    57.64903395 41.294824       5.31918140    2
    57.64903395 41.294824       7.72494240    2
    53.6308008  46.286301325    4.6277579     2
    56.3097508  44.39200304     6.52206255    2
%endblock AtomicCoordinatesAndAtomicSpecies
