SystemName  Si chain  for COOP curves calculation
SystemLabel si_coop
NumberOfAtoms       4
NumberOfSpecies     1
%block ChemicalSpeciesLabel
 1  14  Si
%endblock ChemicalSpeciesLabel
#------------6.3 BASIS DEFINITION---------------------------------------
PAO.BasisSize      SZP
PAO.EnergyShift   100 meV
#------------6.4 LATTICE, COORDINATES -----------------------------------
LatticeConstant     1.0000 Ang
%block LatticeVectors
 4.000  0.000  0.000
 0.000  10.0  0.000
 0.000  0.000  10.0
%endblock LatticeVectors
AtomicCoordinatesFormat Ang
%block AtomicCoordinatesAndAtomicSpecies
 0.0000   0.0000   0.0000  1
 1.0000   0.0000   0.0000  1
 2.0000   0.0000   0.0000  1
 3.0000   0.0000   0.0000  1
%endblock AtomicCoordinatesAndAtomicSpecies
#------------ K-SAMPLING------------------------------------------------
%block kgrid_Monkhorst_Pack
    8    0    0   0.0
    0    1    0   0.0
    0    0    1   0.0
%endblock kgrid_Monkhorst_Pack

MeshCutoff         150.0 Ry
DM.MixingWeight      0.1
DM.NumberPulay       3
DM.Tolerance         1.d-4

SolutionMethod       diagon
ElectronicTemperature  25  meV

COOP.write T
%block ProjectedDensityOfStates
 -25.  5.  0.2  500   eV
%endblock ProjectedDensityOfStates
