NumberOfAtoms   6
LatticeConstant       1 Ang
%block LatticeVectors
        4.594         0.0000000000         0.0000000000
        0.0000000000         4.594         0.0000000000
        0.0000000000         0.0000000000         2.964
%endblock LatticeVectors
AtomicCoordinatesFormat Fractional
%block AtomicCoordinatesAndAtomicSpecies
0.00000000      0.0000000       0.000000000  1
0.50000000      0.5000000       0.500000000  1
0.30500000      0.3050000       0.000000000  2
0.69500000      0.6950000       0.000000000  2
0.19500000      0.8050000       0.500000000  2
0.80500000      0.1950000       0.500000000  2
%endblock AtomicCoordinatesAndAtomicSpecies
