SystemName          scroll_80-5-20
SystemLabel         carbon_nanoscroll

NumberOfAtoms        140
NumberOfSpecies        2

%block ChemicalSpeciesLabel
  1   6  C_2
  2   1  H
%endblock ChemicalSpeciesLabel

PAO.BasisSize SZ 

XC.functional LDA
XC.authors    CA


LatticeConstant     1.0000 Ang    # It is 1.5 * 1.1547 times the graphene lattice parameter
%block LatticeVectors
  35.00000    0.00000   0.00000
   0.00000   35.00000   0.00000
   0.00000    0.00000   4.87320
%endblock LatticeVectors

%block kgrid_Monkhorst_Pack
   1  0  0  0.5
   0  1  0  0.5
   0  0  6  0.5
%endblock Kgrid_Monkhorst_Pack

MeshCutoff          90.0 Ry

MaxSCFIterations     50
DM.MixingWeight      0.1
DM.NumberPulay       3
DM.Tolerance         5.d-5

SolutionMethod       diagon

WriteBands          true
BandLinesScale      ReciprocalLatticeVectors
%block BandLines
   1 0.000 0.000 0.000 \Gamma
  40 0.000 0.000 0.500 X
%endblock BandLines

# WriteDenchar          true

# %block WaveFuncKPoints
#  0.000 0.000 0.000  from 109 to 119
# %endblock WaveFuncKPoints


MD.TypeOfRun         cg
MD.NumCGsteps       0

# ParallelOverK        true

# MD.UseSaveXV         true
# DM.UseSaveDM         true
UseSaveData          true


AtomicCoordinatesFormat Ang
%block AtomicCoordinatesAndAtomicSpecies
     -8.4833800     -0.2472800      0.0000000     2
     -8.4522900     -1.4338200      0.0000000     1
     -8.3493500     -2.1322700     -1.2280000     1
     -7.9702700     -3.5024500     -1.2280000     1
     -7.6992400     -4.1566400      0.0000000     1
     -7.0022300     -5.3901400      0.0000000     1
     -6.5811000     -5.9614800     -1.2280000     1
     -5.6145500     -6.9892400     -1.2280000     1
     -5.0694900     -7.4457800      0.0000000     1
     -3.8791000     -8.2235300      0.0000000     1
     -3.2498200     -8.5364200     -1.2280000     1
     -1.9192600     -9.0152300     -1.2280000     1
     -1.2255900     -9.1773700      0.0000000     1
      0.1797200     -9.3391900      0.0000000     1
      0.8922000     -9.3394400     -1.2280000     1
      2.2975100     -9.1798200     -1.2280000     1
      2.9916500     -9.0203000      0.0000000     1
      4.3251400     -8.5518600      0.0000000     1
      4.9661900     -8.2429100     -1.2280000     1
      6.1626300     -7.4936200     -1.2280000     1
      6.7199600     -7.0527300      0.0000000     1
      7.7301400     -6.0560200      0.0000000     1
      8.1780200     -5.5059600     -1.2280000     1
      8.9487700     -4.3178300     -1.2280000     1
      9.2681500     -3.6863000      0.0000000     1
      9.7682300     -2.3651400      0.0000000     1
      9.9492100     -1.6725900     -1.2280000     1
     10.1608400     -0.2698900     -1.2280000     1
     10.1924900      0.4328700      0.0000000     1
     10.1093600      1.8442400      0.0000000     1
      9.9942600      2.5460400     -1.2280000     1
      9.6214200      3.9150000     -1.2280000     1
      9.3661600      4.5758300      0.0000000     1
      8.7256700      5.8353200      0.0000000     1
      8.3380900      6.4371500     -1.2280000     1
      7.4541900      7.5448800     -1.2280000     1
      6.9636800      8.0470300      0.0000000     1
      5.8744600      8.9594600      0.0000000     1
      5.2883100      9.3584100     -1.2280000     1
      4.0470100     10.0346300     -1.2280000     1
      3.3875100     10.3135500      0.0000000     1
      2.0350300     10.7346300      0.0000000     1
      1.3485500     10.8771000     -1.2280000     1
     -0.0623000     11.0298700     -1.2280000     1
     -0.7700000     11.0377800      0.0000000     1
     -2.1862600     10.9169600      0.0000000     1
     -2.8780000     10.7905300     -1.2280000     1
     -4.2474700     10.4025900     -1.2280000     1
     -4.9087900     10.1451700      0.0000000     1
     -6.1720800      9.5106300      0.0000000     1
     -6.7788800      9.1305000     -1.2280000     1
     -7.9023800      8.2703700     -1.2280000     1
     -8.4242200      7.7875700      0.0000000     1
     -9.3699600      6.7339400      0.0000000     1
     -9.7909300      6.1677500     -1.2280000     1
    -10.5283500      4.9584500     -1.2280000     1
    -10.8416500      4.3195800      0.0000000     1
    -11.3469400      2.9960500      0.0000000     1
    -11.5379500      2.3166100     -1.2280000     1
    -11.7969100      0.9237900     -1.2280000     1
    -11.8634700      0.2153100      0.0000000     1
    -11.8690600     -1.2011000      0.0000000     1
    -11.8090400     -1.9039500     -1.2280000     1
    -11.5640500     -3.2984200     -1.2280000     1
    -11.3795100     -3.9851000      0.0000000     1
    -10.8933000     -5.3139200      0.0000000     1
    -10.5887600     -5.9626400     -1.2280000     1
     -9.8781500     -7.1849500     -1.2280000     1
     -9.4692600     -7.7653500      0.0000000     1
     -8.7588500     -8.6452500      0.0000000     2
     -8.4833800     -0.2472800     -2.4560000     2
     -8.4522900     -1.4338200     -2.4560000     1
     -8.3493500     -2.1322700     -3.6840000     1
     -7.9702700     -3.5024500     -3.6840000     1
     -7.6992400     -4.1566400     -2.4560000     1
     -7.0022300     -5.3901400     -2.4560000     1
     -6.5811000     -5.9614800     -3.6840000     1
     -5.6145500     -6.9892400     -3.6840000     1
     -5.0694900     -7.4457800     -2.4560000     1
     -3.8791000     -8.2235300     -2.4560000     1
     -3.2498200     -8.5364200     -3.6840000     1
     -1.9192600     -9.0152300     -3.6840000     1
     -1.2255900     -9.1773700     -2.4560000     1
      0.1797200     -9.3391900     -2.4560000     1
      0.8922000     -9.3394400     -3.6840000     1
      2.2975100     -9.1798200     -3.6840000     1
      2.9916500     -9.0203000     -2.4560000     1
      4.3251400     -8.5518600     -2.4560000     1
      4.9661900     -8.2429100     -3.6840000     1
      6.1626300     -7.4936200     -3.6840000     1
      6.7199600     -7.0527300     -2.4560000     1
      7.7301400     -6.0560200     -2.4560000     1
      8.1780200     -5.5059600     -3.6840000     1
      8.9487700     -4.3178300     -3.6840000     1
      9.2681500     -3.6863000     -2.4560000     1
      9.7682300     -2.3651400     -2.4560000     1
      9.9492100     -1.6725900     -3.6840000     1
     10.1608400     -0.2698900     -3.6840000     1
     10.1924900      0.4328700     -2.4560000     1
     10.1093600      1.8442400     -2.4560000     1
      9.9942600      2.5460400     -3.6840000     1
      9.6214200      3.9150000     -3.6840000     1
      9.3661600      4.5758300     -2.4560000     1
      8.7256700      5.8353200     -2.4560000     1
      8.3380900      6.4371500     -3.6840000     1
      7.4541900      7.5448800     -3.6840000     1
      6.9636800      8.0470300     -2.4560000     1
      5.8744600      8.9594600     -2.4560000     1
      5.2883100      9.3584100     -3.6840000     1
      4.0470100     10.0346300     -3.6840000     1
      3.3875100     10.3135500     -2.4560000     1
      2.0350300     10.7346300     -2.4560000     1
      1.3485500     10.8771000     -3.6840000     1
     -0.0623000     11.0298700     -3.6840000     1
     -0.7700000     11.0377800     -2.4560000     1
     -2.1862600     10.9169600     -2.4560000     1
     -2.8780000     10.7905300     -3.6840000     1
     -4.2474700     10.4025900     -3.6840000     1
     -4.9087900     10.1451700     -2.4560000     1
     -6.1720800      9.5106300     -2.4560000     1
     -6.7788800      9.1305000     -3.6840000     1
     -7.9023800      8.2703700     -3.6840000     1
     -8.4242200      7.7875700     -2.4560000     1
     -9.3699600      6.7339400     -2.4560000     1
     -9.7909300      6.1677500     -3.6840000     1
    -10.5283500      4.9584500     -3.6840000     1
    -10.8416500      4.3195800     -2.4560000     1
    -11.3469400      2.9960500     -2.4560000     1
    -11.5379500      2.3166100     -3.6840000     1
    -11.7969100      0.9237900     -3.6840000     1
    -11.8634700      0.2153100     -2.4560000     1
    -11.8690600     -1.2011000     -2.4560000     1
    -11.8090400     -1.9039500     -3.6840000     1
    -11.5640500     -3.2984200     -3.6840000     1
    -11.3795100     -3.9851000     -2.4560000     1
    -10.8933000     -5.3139200     -2.4560000     1
    -10.5887600     -5.9626400     -3.6840000     1
     -9.8781500     -7.1849500     -3.6840000     1
     -9.4692600     -7.7653500     -2.4560000     1
     -8.7588500     -8.6452500     -2.4560000     2
%endblock AtomicCoordinatesAndAtomicSpecies
