SystemName      Pd_ice  
SystemLabel     pd_ice 

NumberOfAtoms         21
NumberOfSpecies       3

%block ChemicalSpeciesLabel
  1   46  Pd_wc
  2    8   O_wc
  3    1   H.pbe
%endblock ChemicalSpeciesLabel

PAO.BasisType split
%Block PAO.Basis
Pd_wc   3     -0.09186
n=5   0   2   E    81.71016     6.42203
     8.31372     7.13045
     1.00000     1.00000
n=5   1   1   E   153.66645     6.05545
     8.41765
     1.00000
n=4   2   2   E    32.81903     3.50765
     6.21085     2.51194
     1.00000     1.00000
O_wc    3     -0.24233
n=2   0   2   E    23.36061     3.39721
     4.50769     2.64066
     1.00000     1.00000
n=2   1   2   E     2.78334     5.14253
     6.14996     2.59356
     1.00000     1.00000
n=3   2   1   E    63.98188     0.16104
     3.54403
     1.00000
H.pbe    2      0.46527
n=1   0   2   E    99.93138     2.59932
     4.20357     1.84463
     1.00000     1.00000
n=2   1   1   E    24.56504     2.20231
     3.52816
     1.00000
%EndBlock PAO.Basis


XC.functional      GGA
XC.authors         WC


LatticeConstant    3.912 Ang
%block LatticeVectors
  1.22474487    0.00000000    0.00000000
 -0.61233724    1.06066017    0.00000000
  0.00000000    0.00000000    7.50000000
%endblock LatticeVectors

%block kgrid_Monkhorst_Pack
  6  0  0  0.0
  0  6  0  0.0
  0  0  1  0.0 
%endblock kgrid_Monkhorst_Pack


MeshCutoff         300.0 Ry

DM.MixingWeight      0.035
DM.NumberPulay       8
DM.Tolerance         4.d-4

SolutionMethod       diagon


MD.TypeOfRun         CG
MD.NumCGSteps        0 

UseSaveData         true


%block GeometryConstraints
position from 1 to 9
%endblock GeometryConstraints

 AtomicCoordinatesFormat Ang
 %block AtomicCoordinatesAndAtomicSpecies
      0.7903013      1.3830350     -4.5164916     1
     -1.5805994      2.7660700     -4.5164916     1
      3.2106058      0.0000000     -4.5164916     1
      1.5970607      2.7661688     -2.2586725     1
      1.5970640      0.0000000     -2.2586725     1
      3.9926683      1.3830350     -2.2586725     1
      0.0000000      0.0000000      0.0000000     1
      2.3955944      1.3831042      0.0000000     1
     -0.0000033      2.7661688      0.0000000     1
      0.8185018      1.3713029      2.2546882     1
     -1.5900435      2.7840081      2.2533235     1
      0.7858928      4.1411539      2.2557256     1
      1.6091150      2.7629970      4.5027170     1
     -0.7851883      4.1444036      4.6285447     1
     -0.7861651      1.3807420      4.4553695     1
     -0.8069443      4.0866644      7.1963275     2
      3.9784970      1.3340449      7.5178508     2
      0.8007388      0.4633118      7.4550686     3
      2.3730050      0.4657319      7.4618163     3
      3.9768238      1.2325424      6.5336326     3
     -0.8108440      2.3163767      7.5860318     3
 %endblock AtomicCoordinatesAndAtomicSpecies

