# Sample FDF input file for fcbuild.f
# Pablo Ordejon,  August 98

SystemName     2x2x0 graphite
SystemLabel    graf

NumberOfAtoms        2
LatticeConstant      2.457 Ang

%block LatticeVectors
0.8660254   0.5      0.0
0.8660254  -0.5      0.0
0.0         0.0      3.0
%endblock LatticeVectors

AtomicCoordinatesFormat   ScaledCartesian

%block AtomicCoordinatesAndAtomicSpecies
 0.28867513  0.0  0.0   1   12.01
-0.28867513  0.0  0.0   1   12.01
%endblock AtomicCoordinatesAndAtomicSpecies

SuperCell_1          2
SuperCell_2          2
SuperCell_3          0

AtomicDispl          0.04  Bohr

BandLinesScale       pi/a
%block BandLines
 1  0.000      0.000        0.000  \Gamma
25  1.1547005  0.000        0.000       M
10  1.1547005  0.666666667  0.000       K
25  0.000      0.000        0.000  \Gamma
%endblock BandLines

