# Sample FDF input file for fcbuild.f
# Pablo Ordejon,  August 98

Systemlabel          H2

NumberOfAtoms        2
LatticeConstant      5.000 Ang

%block LatticeVectors
1.0  0.0  0.0
0.0  1.0  0.0
0.0  0.0  1.0
%endblock LatticeVectors

AtomicCoordinatesFormat   NotScaledCartesianAng

%block AtomicCoordinatesAndAtomicSpecies
0.000  0.000  0.000  1   1.0079
0.860  0.000  0.000  1   1.0079
%endblock AtomicCoordinatesAndAtomicSpecies

SuperCell_1          0
SuperCell_2          0
SuperCell_3          0

AtomicDispl          0.04 Bohr

%block BandLines
1  0.000  0.000  0.000  \Gamma
%endblock Bandlines
