
Systemlabel  si2
Systemname   si2

NumberOfSpecies 1

%block chemicalspecieslabel
1 14 Si
%endblock chemicalspecieslabel

PAO.BasisSize SZ

kgrid_cutoff  15.0 Ang

MeshCutoff 130.0 Ry
DM.MixingWeight  0.3
DM.NumberPulay    3
DM.Tolerance     1.0d-5

%include FC.fdf

