# Sample FDF input file for fcbuild.f
# Pablo Ordejon,  August 98

SystemName           si2
SystemLabel          si2

NumberOfAtoms        2
LatticeConstant      5.43  Ang

%block LatticeVectors
0.0 0.5 0.5        
0.5 0.0 0.5
0.5 0.5 0.0
%endblock LatticeVectors

AtomicCoordinatesFormat   ScaledCartesian

%block AtomicCoordinatesAndAtomicSpecies
 0.125   0.125   0.125  1   28.086
-0.125  -0.125  -0.125  1   28.086
%endblock AtomicCoordinatesAndAtomicSpecies

SuperCell_1          0
SuperCell_2          0
SuperCell_3          0

AtomicDispl          0.04  Bohr

BandLinesScale       pi/a
%block BandLines
 1  0.000  0.000  0.000  \Gamma
%endblock BandLines

Eigenvectors         True

