# Sample FDF input file for fcbuild.f
# Pablo Ordejon,  August 98

NumberOfAtoms        2
LatticeConstant      5.43  Ang

%block LatticeVectors
0.0 0.5 0.5        
0.5 0.0 0.5
0.5 0.5 0.0
%endblock LatticeVectors

AtomicCoordinatesFormat   ScaledCartesian

%block AtomicCoordinatesAndAtomicSpecies
 0.125   0.125   0.125  1   28.086
-0.125  -0.125  -0.125  1   28.086
%endblock AtomicCoordinatesAndAtomicSpecies

SuperCell_1          2
SuperCell_2          2
SuperCell_3          2

AtomicDispl          0.04  Bohr

BandLinesScale       pi/a
%block BandLines
 1  0.000  0.000  0.000  \Gamma
25  2.000  0.000  0.000       X
10  2.000  1.000  0.000       W
15  1.000  1.000  1.000       L
20  0.000  0.000  0.000  \Gamma
25  1.500  1.500  1.500       K
%endblock BandLines

