# Water molecule for simplex minimisation

SystemName          Heavy liquid water, 32 molecules
SystemLabel         32_h2o

LongOutput
WriteCoorXmol
NumberOfAtoms          96
NumberOfSpecies        2

xc.functional          GGA
xc.authors             LYP 

%block ChemicalSpeciesLabel
  1   8  O_lyp
  2   1  H_lyp  
%endblock ChemicalSpeciesLabel

%block AtomicMass
  2   2.0
%endblock AtomicMass

%Block PAO.Basis
O_lyp    2     -0.24233
n=2   0   1   E    23.36061     3.39721
     4.50769 
     1.00000 
n=2   1   1   E     2.78334     5.14253
     6.14996 
     1.00000 
H_lyp    1      0.46527
n=1   0   1   E    99.93138     2.59932
     4.20357  
     1.00000  
%EndBlock PAO.Basis


LatticeConstant       9.865 Ang    # Lattice constant alat (3% larger)
%block LatticeVectors   
  1.0  0.0  0.0
  0.0  1.0  0.0
  0.0  0.0  1.0
%endblock LatticeVectors   

MeshCutoff           150.0 Ry       # Mesh cutoff. real space mesh

# SCF options
MaxSCFIterations      75            # Maximum number of SCF iter
DM.MixingWeight       0.1           # New DM amount for next SCF cycle
DM.Tolerance          1.d-4         # Tolerance in maximum difference
DM.NumberPulay         3
DM.UseSaveDM

SolutionMethod        diagon        # OrderN or Diagon
ElectronicTemperature  5 meV        # Temp. for Fermi smearing

AtomicCoordinatesFormat  NotScaledCartesianAng
%block AtomicCoordinatesAndAtomicSpecies 
       0.190000       3.680000       6.470000  1
      -0.630000       4.110000       6.860000  2
      -0.090000       2.950000       5.840000  2
       1.490000       7.030000       7.170000  1
       2.060000       7.810000       6.920000  2
       0.890000       7.290000       7.930000  2
       6.850000       0.260000       6.650000  1
       7.540000       0.100000       7.350000  2
       6.120000       0.830000       7.030000  2
       6.060000       9.640000       1.230000  1
       6.130000      10.480000       0.690000  2
       6.520000       9.770000       2.110000  2
       5.980000       7.290000       2.700000  1
       6.220000       7.980000       2.020000  2
       5.200000       7.620000       3.240000  2
       0.050000       4.100000       2.560000  1
      -0.720000       4.440000       3.100000  2
      -0.290000       3.590000       1.770000  2
       0.550000       7.010000       4.290000  1
       0.810000       6.970000       5.250000  2
      -0.300000       6.500000       4.150000  2
       5.500000       1.960000       8.850000  1
       5.450000       1.910000       9.850000  2
       5.520000       2.920000       8.560000  2
       3.820000       7.000000       4.800000  1
       4.270000       6.100000       4.770000  2
       2.880000       6.890000       5.130000  2
       9.220000       5.030000       8.990000  1
       8.970000       4.940000       8.030000  2
       9.700000       4.210000       9.300000  2
       5.390000       0.640000       5.120000  1
       4.580000       0.650000       5.700000  2
       5.420000       1.470000       4.570000  2
       5.610000       2.220000       1.610000  1
       5.990000       1.380000       1.980000  2
       4.730000       2.410000       2.050000  2
       7.050000       0.640000       3.680000  1
       6.910000       0.710000       4.670000  2
       7.890000       0.130000       3.500000  2
       5.660000       5.370000       8.650000  1
       5.780000       6.030000       7.910000  2
       6.120000       5.710000       9.480000  2
       2.230000       5.250000       2.750000  1
       2.360000       4.410000       3.290000  2
       1.940000       5.990000       3.350000  2
       7.320000       6.340000       0.780000  1
       7.910000       6.080000       0.020000  2
       7.040000       7.300000       0.670000  2
       3.070000       0.630000       6.180000  1
       2.960000       1.570000       6.510000  2
       3.020000       0.000000       6.950000  2
       0.370000       7.660000       9.660000  1
       0.520000       7.870000      10.620000  2
       0.070000       6.710000       9.570000  2
       3.190000       8.100000       9.490000  1
       4.120000       8.460000       9.540000  2
       3.130000       7.250000      10.010000  2
       3.390000       5.090000       0.200000  1
       2.870000       4.260000       0.030000  2
       4.160000       5.140000      -0.440000  2
       8.150000       5.720000       3.250000  1
       8.220000       4.830000       2.790000  2
       7.210000       6.060000       3.170000  2
       4.730000       5.000000       1.910000  1
       5.340000       5.800000       1.950000  2
       3.780000       5.310000       1.980000  2
       3.160000       8.550000       3.090000  1
       2.300000       8.240000       3.510000  2
       3.120000       8.410000       2.100000  2
       0.830000       2.720000       0.360000  1
       0.780000       2.710000       1.360000  2
       0.000000       2.310000      -0.020000  2
       9.030000       0.860000       1.330000  1
       9.540000       0.870000       0.470000  2
       9.590000       0.440000       2.040000  2
       2.630000       3.260000       7.200000  1
       1.840000       3.770000       6.860000  2
       2.540000       3.110000       8.180000  2
       9.160000       9.100000       2.910000  1
       9.790000       9.480000       2.230000  2
       9.560000       8.270000       3.300000  2
       0.720000       1.660000       3.180000  1
       0.550000       2.490000       2.640000  2
       1.620000       1.290000       2.960000  2
       2.390000       3.250000       4.490000  1
       3.040000       2.510000       4.380000  2
       2.590000       3.750000       5.330000  2
       5.940000       7.450000       6.520000  1
       6.440000       8.300000       6.330000  2
       5.060000       7.470000       6.040000  2
       8.590000       9.560000       8.610000  1
       9.130000       8.870000       9.090000  2
       8.270000      10.250000       9.270000  2
       4.280000       4.240000       5.200000  1
       4.580000       3.520000       4.580000  2
       3.890000       3.840000       6.030000  2
%endblock AtomicCoordinatesAndAtomicSpecies
