SystemName   Si bulk optical 
SystemLabel         si-optical

NumberOfAtoms       2
NumberOfSpecies     1

%block ChemicalSpeciesLabel
 1  14  Si
%endblock ChemicalSpeciesLabel

PAO.BasisSize       DZP
PAO.EnergyShift     150 meV

LatticeConstant     5.430 Ang
%block LatticeVectors
  0.000  0.500  0.500
  0.500  0.000  0.500
  0.500  0.500  0.000
%endblock LatticeVectors
%block kgrid_Monkhorst_Pack
   5  0 0  0.
   0  5 0  0.
   0  0 5  0.
%endblock kgrid_Monkhorst_Pack

MeshCutoff          150.0 Ry

DM.MixingWeight      0.3 
DM.NumberPulay       3  
DM.Tolerance         1.d-4
DM.UseSaveDM      .true.       

SolutionMethod       diagon    
ElectronicTemperature  25 meV  

MD.TypeOfRun         cg
MD.NumCGsteps        0    
MD.MaxCGDispl         0.1  Ang
MD.MaxForceTol        0.04 eV/Ang

AtomicCoordinatesFormat  ScaledCartesian
%block AtomicCoordinatesAndAtomicSpecies
    0.000    0.000    0.000   1 #  Si  1
    0.250    0.250    0.250   1 #  Si  2
%endblock AtomicCoordinatesAndAtomicSpecies

OpticalCalculation .true.

%block  Optical.Mesh
      20 20 20
%endblock  Optical.Mesh

Optical.OffsetMesh .true.

Optical.PolarizationType polarized

%block  Optical.Vector
          1.0 0.0 0.0
%endblock  Optical.Vector

Optical.Broaden 0.2 eV

Optical.EnergyMaximum  20.0 eV

Optical.EnergyMinimum  0.0 eV



