#
# The SIMPLEST basis definition
# It will be DZP by default
# (2 s orbitals, 2 p orbitals,
#  and one d orbital)
#
NumberOfSpecies     1

%block ChemicalSpeciesLabel
 1  14  Si_dzp
%endblock ChemicalSpeciesLabel
