NumberOfSpecies     1

%block ChemicalSpeciesLabel
 1  14  Si_sz
%endblock ChemicalSpeciesLabel

PAO.BasisSize       SZ
PAO.EnergyShift     300 meV
