Spin non-collinear
xc-functional GGA
xc-authors PBE      

SystemName          Linear Fe3 cluster non-collinear spin with GGA-PBE
SystemLabel         fe_clust_noncollinear-gga
NumberOfAtoms       3
NumberOfSpecies     1

%block ChemicalSpeciesLabel
 1  26  Fe      # Species index, atomic number, species label
%endblock ChemicalSpeciesLabel

LatticeConstant    1.0 Bohr
%block LatticeVectors
 12.000   0.000   0.000
  0.000  12.000   0.000
  0.000   0.000  20.000
%endblock LatticeVectors

AtomicCoordinatesFormat  NotScaledCartesianBohr
%block AtomicCoordinatesAndAtomicSpecies
  0.000   0.000   3.644  1
  0.000   0.000   0.000  1
  0.000   0.000  -3.644  1
%endblock AtomicCoordinatesAndAtomicSpecies

PAO.BasisType    split
PAO.SplitNorm    0.15
%block PAO.BasisAndPSlmax
  1   26   2   3
    0    2
      5.30   0.00
      1.00   1.00
    1    1
      5.30   0.00
      1.00   1.00
    2    2
      4.50   0.00
      1.00   1.00
%endblock PAO.BasisAndPSlmax

MeshCutoff        150. Ry

ElectronicTemperature   0.1 eV
DM.MixingWeight         0.01
DM.NumberPulay          4
SCF.MustConverge false

MD.TypeOfRun      CG
MD.NumCGsteps     0

WriteMullikenPop  1

DM.UseSaveDM      yes

%block DM.InitSpin
 1  +3.00     0.   0.   # atom,spin,theta,phi (deg)
 2  +1.50    90.   0.
 3  +3.00   180.   0.
%endblock DM.InitSpin


