SystemName          Water molecule LBFGS (FLOS)
SystemLabel         flos_h2o_lbfgs
NumberOfAtoms       3
NumberOfSpecies     2

MeshCutoff  100. Ry

%block ChemicalSpeciesLabel
 1  8  O      # Species index, atomic number, species label
 2  1  H
%endblock ChemicalSpeciesLabel

AtomicCoordinatesFormat  Ang
%block AtomicCoordinatesAndAtomicSpecies
 0.000  0.000  0.000  1
 0.657  0.586  0.000  2
-0.857  0.586  0.000  2
%endblock AtomicCoordinatesAndAtomicSpecies

%block Geometry.Constraints
  atom 1
%endblock

# Uncomment the following line to 
# check against the siesta implementation
# of the CG algorithm.
MD.TypeOfRun Lua
MD.TypeOfRun CG
Lua.Script relax.lua
