SystemName          H3PO4 molecule
SystemLabel         h3po4_3
NumberOfAtoms       8
NumberOfSpecies     3

%block ChemicalSpeciesLabel
 3 15  P      # Species index, atomic number, species label
 2  1  H
 1  8  O
%endblock ChemicalSpeciesLabel


AtomicCoordinatesFormat  Ang
%block AtomicCoordinatesAndAtomicSpecies
0.549093        2.155440        -0.338300  2
0.000046        0.000003        -0.000046  3 
-1.526503       -0.441092       -0.288371  1
-1.720758       -1.263279       0.227476   2
0.635084        -0.274540       1.296081   1
0.844830        -0.588106       -1.248646  1
-0.252131       1.559335        -0.390172  1
0.378031        -0.630812       -2.132000  2
%endblock AtomicCoordinatesAndAtomicSpecies

PAO.BasisType split
%Block PAO.Basis
P    3      0.05192
 n=3   0   2   E     0.00000     0.28668
     4.95334     1.96730
     1.00000     1.00000
 n=4   0   1   E     0.00000     0.29518
     5.01640
     1.00000
 n=3   1   2   E    16.50988     0.30118
     6.79353     2.82182
     1.00000     1.00000
H    2      0.12297
 n=1   0   2   E     6.06330     0.29177
     4.94850     1.95400
     1.00000     1.00000
 n=2   1   1   E    98.08976     0.08782
     5.04168
     1.00000
O    3      0.02995
 n=2   0   2   E     0.00000     0.20804
     5.74313     2.50161
     1.00000     1.00000
 n=2   1   2   E     0.00000     0.00000
     7.61022     2.31283
     1.00000     1.00000
 n=3   2   1   E    28.29197     0.00000
     4.87171
     1.00000
%EndBlock PAO.Basis

DM.MixingWeight 0.3
DM.NumberPulay  7
