SystemName          Water molecule with Bessel Orbitals
SystemLabel         bessel
NumberOfAtoms       5
NumberOfSpecies     3

%block ChemicalSpeciesLabel
 1  8  O      # Species index, atomic number, species label
 2  1  H
 3  -100 Bessel
%endblock ChemicalSpeciesLabel

AtomicCoordinatesFormat  Ang
%block AtomicCoordinatesAndAtomicSpecies
 0.000  0.000  0.000  1
 0.757  0.586  0.000  2
-0.757  0.586  0.000  2
 0.3785 0.293  0.000  3
-0.3785 0.293  0.000  3
%endblock AtomicCoordinatesAndAtomicSpecies

%block PAO.Basis
Bessel    1
 n=1    0    1   
   2.0
   1.0
%endblock PAO.Basis
