SystemName          Water molecule
SystemLabel         h2o_2
NumberOfAtoms       3
NumberOfSpecies     2

MeshCutoff  50 Ry

%block ChemicalSpeciesLabel
 2  8  O      # Species index, atomic number, species label
 1  1  H
%endblock ChemicalSpeciesLabel

AtomicCoordinatesFormat  Ang
%block AtomicCoordinatesAndAtomicSpecies
 0.000  0.000  0.000  2 
 0.757  0.586  0.000  1
-0.757  0.586  0.000  1
%endblock AtomicCoordinatesAndAtomicSpecies

save-rho T
save-delta-rho T
save-total-potential T
save-hs T
