SystemName OMM_h2o
SystemLabel OMM_h2o

SolutionMethod OMM
OMM.UseCholesky .false.
OMM.Use2D .false.
OMM.UseSparse .true.
OMM.LongOutput .true.
OMM.Precon 4
OMM.PreconFirstStep 8
OMM.Diagon 1
OMM.DiagonFirstStep 2
ON.eta 1.0 eV

DM.MixingWeight 0.3
DM.NumberPulay 3

MD.TypeOfRun Verlet
MD.LengthTimeStep 0.5 fs
MD.InitialTimeStep 1
MD.FinalTimeStep 2

NumberOfAtoms 75
NumberOfSpecies 2

xc.functional GGA
xc.authors PBE
MeshCutoff 150.0 Ry

%block ChemicalSpeciesLabel
  1   8  O
  2   1  H  
%endblock ChemicalSpeciesLabel

%block AtomicMass
  2   2.0
%endblock AtomicMass

%Block PAO.Basis
O    3     -0.24233
n=2   0   2   E    23.36061     3.39721
     4.50769     2.64066
     1.00000     1.00000
n=2   1   2   E     2.78334     5.14253
     6.14996     2.59356
     1.00000     1.00000
n=3   2   1   E    63.98188     0.16104
     3.54403
     1.00000
H    2      0.46527
n=1   0   2   E    99.93138     2.59932
     4.20357     1.84463
     1.00000     1.00000
n=2   1   1   E    24.56504     2.20231
     3.52816
     1.00000
%EndBlock PAO.Basis

LatticeConstant 9.4050749697838985 Ang
%block LatticeVectors   
  1.0  0.0  0.0
  0.0  1.0  0.0
  0.0  0.0  1.0
%endblock LatticeVectors   

AtomicCoordinatesFormat Bohr
%block AtomicCoordinatesAndAtomicSpecies
       0.271721271       3.119637055      -1.749493359  1
      -1.361096829       3.204984172      -2.669959385  2
       0.246718679       3.926604328      -0.071541239  2
       8.311652902     -11.963298323     -11.057926872  1
       6.931775021     -13.138900572     -11.504628311  2
       7.717160949     -10.951995493      -9.612233339  2
       7.634904574      11.611070140       5.419478562  1
       6.612157583      10.630203937       4.222382954  2
       8.508387659      10.275103855       6.299657650  2
       1.088296355       4.866166064       8.060187174  1
       1.621419006       4.845848730       9.857590375  2
       2.489790819       4.316201339       7.004213634  2
       9.514351225      28.712786451      30.541316695  1
      10.741948843      29.848452754      29.798712013  2
       9.600689725      29.488895711      32.186308857  2
       2.765426625     -11.534684191      12.777783235  1
       2.632675376      -9.940598422      13.750518997  2
       2.044491465     -12.798481439      13.936629614  2
       0.808101196      10.680419768      16.619470944  1
      -0.799318391      10.744597970      15.780253011  2
       1.186387569      12.296204626      17.445398242  2
      12.614874815       4.455787228       2.855892155  1
      14.156801322       5.471453307       3.091794672  2
      11.361370606       5.392414941       3.815327017  2
      13.440254527       3.192686846      13.358161133  1
      12.731662526       1.717886963      12.549059254  2
      13.286449447       4.420442333      12.017896156  2
       8.060734014      13.472519521      17.495021588  1
       6.959360013      14.899483220      17.119019774  2
       7.895271978      13.321839006      19.345735610  2
      13.859779900       7.654433989       9.866049951  1
      14.758359038       8.506380009      11.213803961  2
      15.163545822       6.660988313       9.028602683  2
       1.443293043      14.923949908       1.754173956  1
       1.554779162      14.905149655       3.590820589  2
      -0.136041319      15.843429008       1.419836240  2
      13.860957337      -0.822181029       1.242800368  1
      13.863384180       0.981393852       1.688465118  2
      13.086016293      -1.627928368       2.692080103  2
       5.353715362      36.090934150       9.641855094  1
       6.154911182      34.928350434      10.798841820  2
       3.935807034      36.484548053      10.734558553  2
      13.715105220       8.318491717      15.361493771  1
      13.988472016       6.965654264      16.571857538  2
      12.531189944       7.599923125      14.073730002  2
      12.838669661      15.557487542      -3.815654092  1
      14.575584857      15.116229783      -3.530227991  2
      12.273966722      15.985398137      -2.115037243  2
      17.461377494       7.412068499       3.145280145  1
      17.332627699       8.422084738       1.594995588  2
      18.966464137       7.878783566       4.097251518  2
       5.500090929      17.822785414      16.498974667  1
       5.863675533      19.626248353      16.264166537  2
       3.705635673      17.709063348      16.822429526  2
       5.195545602       8.430559528      19.805597537  1
       3.889070757       8.925838969      18.551895441  2
       6.665029193       8.166899349      18.716217722  2
      16.673708418      17.949738252       9.095675266  1
      15.015366329      18.480975322       8.544732644  2
      17.811679505      19.279388518       8.466509013  2
       7.734970198       5.093195180      15.225527462  1
       7.507132634       5.992128913      13.621919415  2
       9.519302577       4.576777798      14.988074280  2
       4.538261737      19.859434629       4.124545697  1
       4.507648398      18.397826560       5.225137422  2
       4.802067829      19.114248330       2.470289744  2
      11.129277450       1.751344940       8.609875697  1
      10.216317212       3.169211601       7.860238012  2
      10.842704285       0.366998906       7.383943189  2
      12.734607488      13.295108596       6.414466417  1
      13.602407491      11.811340876       7.014899686  2
      11.289811756      12.609744463       5.540772716  2
      17.505349996      12.562813872      10.446845033  1
      17.321675660      14.433171421      10.470815193  2
      17.734421129      12.285085123       8.646311526  2
%endblock AtomicCoordinatesAndAtomicSpecies