NumberOfAtoms          54

LatticeConstant   10.2612169463  Bohr

%block LatticeVectors
   0.0000000000     1.5000000000     1.5000000000
   1.5000000000     0.0000000000     1.5000000000
   1.5000000000     1.5000000000     0.0000000000
%endblock LatticeVectors

AtomicCoordinatesFormat  NotScaledCartesianBohr

%block AtomicCoordinatesAndAtomicSpecies
  -8.9785648280    -8.9785648280    -8.9785648280      1
 -11.5438690646   -11.5438690646   -11.5438690646      1
  -3.8479563549    -3.8479563549    -8.9785648280      1
  -6.4132605914    -6.4132605914   -11.5438690646      1
   1.2826521183     1.2826521183    -8.9785648280      1
  -1.2826521183    -1.2826521183   -11.5438690646      1
  -3.8479563549    -8.9785648280    -3.8479563549      1
  -6.4132605914   -11.5438690646    -6.4132605914      1
   1.2826521183    -3.8479563549    -3.8479563549      1
  -1.2826521183    -6.4132605914    -6.4132605914      1
   6.4132605914     1.2826521183    -3.8479563549      1
   3.8479563549    -1.2826521183    -6.4132605914      1
   1.2826521183    -8.9785648280     1.2826521183      1
  -1.2826521183   -11.5438690646    -1.2826521183      1
   6.4132605914    -3.8479563549     1.2826521183      1
   3.8479563549    -6.4132605914    -1.2826521183      1
  11.5438690646     1.2826521183     1.2826521183      1
   8.9785648280    -1.2826521183    -1.2826521183      1
  -8.9785648280    -3.8479563549    -3.8479563549      1
 -11.5438690646    -6.4132605914    -6.4132605914      1
  -3.8479563549     1.2826521183    -3.8479563549      1
  -6.4132605914    -1.2826521183    -6.4132605914      1
   1.2826521183     6.4132605914    -3.8479563549      1
  -1.2826521183     3.8479563549    -6.4132605914      1
  -3.8479563549    -3.8479563549     1.2826521183      1
  -6.4132605914    -6.4132605914    -1.2826521183      1
   1.2826521183     1.2826521183     1.2826521183      1
  -1.2826521183    -1.2826521183    -1.2826521183      1
   6.4132605914     6.4132605914     1.2826521183      1
   3.8479563549     3.8479563549    -1.2826521183      1
   1.2826521183    -3.8479563549     6.4132605914      1
  -1.2826521183    -6.4132605914     3.8479563549      1
   6.4132605914     1.2826521183     6.4132605914      1
   3.8479563549    -1.2826521183     3.8479563549      1
  11.5438690646     6.4132605914     6.4132605914      1
   8.9785648280     3.8479563549     3.8479563549      1
  -8.9785648280     1.2826521183     1.2826521183      1
 -11.5438690646    -1.2826521183    -1.2826521183      1
  -3.8479563549     6.4132605914     1.2826521183      1
  -6.4132605914     3.8479563549    -1.2826521183      1
   1.2826521183    11.5438690646     1.2826521183      1
  -1.2826521183     8.9785648280    -1.2826521183      1
  -3.8479563549     1.2826521183     6.4132605914      1
  -6.4132605914    -1.2826521183     3.8479563549      1
   1.2826521183     6.4132605914     6.4132605914      1
  -1.2826521183     3.8479563549     3.8479563549      1
   6.4132605914    11.5438690646     6.4132605914      1
   3.8479563549     8.9785648280     3.8479563549      1
   1.2826521183     1.2826521183    11.5438690646      1
  -1.2826521183    -1.2826521183     8.9785648280      1
   6.4132605914     6.4132605914    11.5438690646      1
   3.8479563549     3.8479563549     8.9785648280      1
  11.5438690646    11.5438690646    11.5438690646      1
   8.9785648280     8.9785648280     8.9785648280      1
%endblock AtomicCoordinatesAndAtomicSpecies

MD.TypeOfRun           FC
MD.FCfirst             27
MD.FClast              28
MD.FCdispl             0.0400000000  Bohr
