Systemlabel  force_constants
Systemname   si54 Force constants

NumberOfSpecies 1

%block chemicalspecieslabel
1 14 Si
%endblock chemicalspecieslabel

PAO.BasisSize SZ

MeshCutoff 130.0 Ry

# In a real calculation, a high degree of self-consistency should be achieved
#DM.MixingWeight  0.3
#DM.NumberPulay    3
#DM.Tolerance     1.0d-5   

%include FC.fdf

