SystemName          Water molecule
SystemLabel         lua_h2o
NumberOfAtoms       3
NumberOfSpecies     2

# File name that should be
# runned by the Lua interpreter
LUA.Script ../siesta.lua
# Debug (create loads of print-out)
LUA.Debug T

MD.TypeOfRun CG
MD.NumCGSteps 100

MeshCutoff  50 Ry

%block ChemicalSpeciesLabel
 1  8  O      # Species index, atomic number, species label
 2  1  H
%endblock ChemicalSpeciesLabel

AtomicCoordinatesFormat  Ang
%block AtomicCoordinatesAndAtomicSpecies
 0.000  0.000  0.000  1
 0.757  0.586  0.000  2
-0.757  0.586  0.000  2
%endblock AtomicCoordinatesAndAtomicSpecies

save-rho T
save-delta-rho T
save-total-potential T
save-neutral-atom-potential T
save-hs T
