SystemName      Y.M. Niquet wire, 41 atoms
SystemLabel     sinw 


NumberOfSpecies        2
NumberOfAtoms          27
LongOutput

%block ChemicalSpeciesLabel
  1  14  Si
  2   1  H
%endblock ChemicalSpeciesLabel

LatticeConstant   3.83959 Ang 

%block LatticeVectors
  1.000  0.000        0.000
  0.000  10.000       0.000
  0.000  0.000        10.0
%endblock LatticeVectors


xc.functional         LDA
xc.authors            CA

%block kgrid_Monkhorst_Pack
    1   0   0      0.000
    0   1   0      0.000
    0   0   8      0.500
%endblock kgrid_Monkhorst_Pack

PAO.BasisO.BasisSize  DZP
PAO.EnergyShift   100 meV



MeshCutoff          200.0 Ry
SolutionMethod      Diagon

DM.NumberPulay         3
DM.UseSaveDM           T
DM.MixingWeight         0.25
DM.NumberKick          15
MaxSCFIterations      100

LongOutput           true
UseSaveData          true

MD.TypeOfRun           cg           # Type of dynamics:
#MD.VariableCell      .true.
MD.NumCGsteps         0 
MD.MaxForceTol         0.09  eV/Ang
WriteCoorXmol
WriteBands

%block BandLines
1 0.000 0.000 0.000
20 1.000 0.00 0.000
%endblock BandLines

 AtomicCoordinatesFormat   Ang
 %block AtomicCoordinatesAndAtomicSpecies
       2.000000        .000000        .000000  1
       3.919800        .000000       1.357500  1
       2.000000      -1.919800      -1.357500  1
       2.000000       1.919800      -1.357500  1
       2.000000       3.839600        .000000  1
       3.919800       1.919800       2.715000  1
       3.919800      -1.919800       2.715000  1
       2.000000      -3.839600        .000000  1
       3.919800      -1.919800      -2.715000  1
       3.919800       1.919800      -2.715000  1
       3.919800        .000000      -4.072500  1
       2.000000       1.919800       4.072500  1
       2.000000      -1.919800       4.072500  1
       3.919800      -3.839600       1.357500  1
       3.919800       3.839600       1.357500  1
       2.000000       -.654230       4.967400  2
       2.654230        .000000      -4.967400  2
       2.000000        .654230       4.967400  2
       2.000000      -5.129700       -.912210  2
       3.919800      -3.209900      -3.627200  2
       2.000000       5.129700       -.912210  2
       3.919800       3.209900      -3.627200  2
       5.185400        .000000      -4.967400  2
       3.919800       5.129700       2.269700  2
       3.919800      -5.129700       2.269700  2
       2.000000      -3.185400       4.967400  2
       2.000000       3.185400       4.967400  2
 %endblock AtomicCoordinatesAndAtomicSpecies
