 AtomicCoordinatesFormat   Ang
 %block AtomicCoordinatesAndAtomicSpecies
       2.000000        .000000        .000000  1
       3.919800        .000000       1.357500  1
       2.000000      -1.919800      -1.357500  1
       2.000000       1.919800      -1.357500  1
       2.000000       3.839600        .000000  1
       3.919800       1.919800       2.715000  1
       3.919800      -1.919800       2.715000  1
       2.000000      -3.839600        .000000  1
       3.919800      -1.919800      -2.715000  1
       3.919800       1.919800      -2.715000  1
       3.919800        .000000      -4.072500  1
       2.000000       1.919800       4.072500  1
       2.000000      -1.919800       4.072500  1
       3.919800      -3.839600       1.357500  1
       3.919800       3.839600       1.357500  1
       2.000000       -.654230       4.967400  2
       2.654230        .000000      -4.967400  2
       2.000000        .654230       4.967400  2
       2.000000      -5.129700       -.912210  2
       3.919800      -3.209900      -3.627200  2
       2.000000       5.129700       -.912210  2
       3.919800       3.209900      -3.627200  2
       5.185400        .000000      -4.967400  2
       3.919800       5.129700       2.269700  2
       3.919800      -5.129700       2.269700  2
       2.000000      -3.185400       4.967400  2
       2.000000       3.185400       4.967400  2
 %endblock AtomicCoordinatesAndAtomicSpecies
