SystemName          H-SiC surface
SystemLabel         sic-slab

NumberOfAtoms        78 
NumberOfSpecies       3

%block ChemicalSpeciesLabel
  1  14  Si.pbe
  2   6  C.pbe
  3   1  H.pbe
%endblock ChemicalSpeciesLabel

XC.functional GGA
XC.authors PBE

######################################
NetCharge -1
SlabDipoleCorrection .true.
SimulateDoping       .true.
######################################
 
PAO.BasisType    split
%block PAO.Basis
Si.pbe     2  0.3305                    # Species label, number of l-shells
n=3   0   1   E   175.7234 6.2327
     6.2845 
     1.0000 
 n=3   1   1   E   27.01148 6.3612
     7.4564  
     1.0000  

C.pbe     2  -0.2034                 # Species label, number of l-shell
n=2    0   1   E   166.5952 6.0853
     6.1031 
     1.0000 
 n=2   1   1   E   92.8959 8.1457
     8.2107  
     1.0000  
%endblock PAOBasis

#####################################################
LatticeConstant     4.41 Ang
%block LatticeVectors
   2.1213  0.000   0.000
   0.000   1.4142  0.000
   0.000   0.000   6.000
%endblock LatticeVectors

%block kgrid_Monkhorst_Pack
   2 0 0  0.5
   0 2 0  0.5
   0 0 1  0.5
%endblock Kgrid_Monkhorst_Pack

MeshCutoff          150.0 Ry

MaxSCFIterations    1000 
DM.MixingWeight      0.01
DM.MixSCF1           true
DM.NumberPulay       3
DM.Tolerance         1.d-3
Diag.ParallelOverK .false.
SolutionMethod       diagon
Diag.DivideandConquer .false.

MD.TypeOfRun         cg
MD.NumCGsteps       0

UseSaveData    true


AtomicCoordinatesFormat Ang
%block AtomicCoordinatesAndAtomicSpecies
   0.00000000    0.00000000    1.10867100 1
   0.00000000    3.11831100    1.10867100 1
   3.11831100    0.00000000    1.10867100 1
   3.11831100    3.11831100    1.10867100 1
   6.23662200    0.00000000    1.10867100 1
   6.23662200    3.11831100    1.10867100 1
   1.55915550    1.55915550    3.32601240 1
   1.55915550    4.67746650    3.32601240 1
   4.67746650    1.55915550    3.32601240 1
   4.67746650    4.67746650    3.32601240 1
   7.79577750    1.55915550    3.32601240 1
   7.79577750    4.67746650    3.32601240 1
   0.01027940    0.00664970    5.52302280 1
   0.01060850    3.11373910    5.52300540 1
   3.11458540    0.00550670    5.55345380 1
   3.11432280    3.11491680    5.55344830 1
   6.21927560    0.00802080    5.52490330 1
   6.21927070    3.11221930    5.52519910 1
   1.53746550    1.56090880    7.79610790 1
   1.53912180    4.67933110    7.75737400 1
   4.67580380    1.56044320    7.80269800 1
   4.69155670    4.67867200    7.75674950 1
   7.79257630    1.56066510    7.68854410 1
   7.79713220    4.67880950    7.65962760 1
  -0.33280770   -0.01336080    9.92270830 1
  -0.33242730    3.13658110    9.92293350 1
   3.08498250   -0.05468280    9.99183650 1
   3.08472280    3.17626970    9.99165200 1
   6.58190510   -0.01079790    9.90436510 1
   6.58215340    3.13279030    9.90477480 1
   1.32297380   -0.31629120   11.58010590 1
   4.92684820   -0.33978750   11.55125900 1
   1.32312360    3.44028980   11.58008110 1
   4.92654070    3.45989040   11.55135850 1
   1.68230240    1.56163700   13.12703150 1
   3.93025970    1.56016040   12.52144840 1
   0.00000000    1.55915550    0.00000000 2
   0.00000000    4.67746650    0.00000000 2
   3.11831100    1.55915550    0.00000000 2
   3.11831100    4.67746650    0.00000000 2
   6.23662200    1.55915550    0.00000000 2
   6.23662200    4.67746650    0.00000000 2
   1.55915550    0.00000000    2.21734150 2
   1.55915550    3.11831100    2.21734150 2
   4.67746650    0.00000000    2.21734150 2
   4.67746650    3.11831100    2.21734150 2
   7.79577750    0.00000000    2.21734150 2
   7.79577750    3.11831100    2.21734150 2
   0.00531870    1.55987010    4.41991710 2
   0.00620000    4.67832990    4.42719290 2
   3.11734330    1.55994490    4.43660560 2
   3.11751020    4.67818500    4.44245880 2
   6.22983140    1.55995350    4.42029700 2
   6.22768100    4.67819940    4.42927320 2
   1.54987200    0.01038930    6.66089170 2
   1.54989930    3.11111970    6.66082310 2
   4.67705400    0.01173830    6.66325450 2
   4.67674840    3.10875430    6.66327630 2
   7.79169160    0.00862610    6.59215330 2
   7.79170900    3.11240310    6.59204890 2
  -0.04591870    1.56135990    8.85207770 2
  -0.04873180    4.67963390    8.80706140 2
   3.09699940    1.56106940    8.93969330 2
   3.12217110    4.67917250    8.81700870 2
   6.26457750    1.56075320    8.84988940 2
   6.27978670    4.67918460    8.80346650 2
   0.79289900    1.55919600   -0.70000000 3
  -0.90452600    1.55914300   -0.70000000 3
   0.87543500    4.67746100   -0.70000000 3
  -0.82520000    4.67745700   -0.70000000 3
   3.91123500    1.55915500   -0.70000000 3
   2.21388900    1.55909500   -0.70000000 3
   3.99394100    4.67746400   -0.70000000 3
   2.29330300    4.67744400   -0.70000000 3
   7.02960600    1.55915400   -0.70000000 3
   5.33218600    1.55915100   -0.70000000 3
   7.11239100    4.67746100   -0.70000000 3
   5.41177000    4.67745900   -0.70000000 3
%endblock AtomicCoordinatesAndAtomicSpecies
##########################################################
SaveTotalPotential .true.
SaveElectrostaticPotential .true.
SaveRho .true.
SaveDeltarho .true.

