SystemName          ptcda-A_Au
SystemLabel         ptcda-au

NumberOfAtoms       204
NumberOfSpecies       4

%block ChemicalSpeciesLabel
  1   6  C_2
  2   8  O
  3   1  H
  4  79  Au
%endblock ChemicalSpeciesLabel

PAO.BasisSize    SZ 
PAO.EnergyShift  0.005 Ry

XC.functional    GGA
XC.authors       PBE


LatticeConstant      1.0000 Ang
%block LatticeVectors
  11.851110    0.00000   0.00000
    0.00000   20.52670   0.00000
    0.00000    0.00000  50.00000
%endblock LatticeVectors

MeshCutoff          225.0 Ry

DM.MixingWeight      0.1
DM.NumberPulay       10
DM.Tolerance         1.d-4

SolutionMethod       diagon

DivideAndConquer      true

# WriteDenchar          true

# The HOMO is state 844
# States from 640 to 920

# %block WaveFuncKPoints
#  0.000 0.000 0.000  from 640 to 920
# %endblock WaveFuncKPoints


MD.TypeOfRun          CG
MD.NumCGSteps         0

# SaveElectrostaticPotential   true
SaveHS                       true

DM.UseSaveDM                 true


AtomicCoordinatesFormat Ang
%block AtomicCoordinatesAndAtomicSpecies
     11.7702194     20.3946893      7.0381823     4
      1.4073056      2.4069528      7.0576851     4
      1.4058199      0.6948682      4.6220573     4
     11.7921150      3.3196587      4.6375413     4
      0.0000000      1.6876581      2.3678560     4
      1.4615547      4.2191441      2.3678560     4
      0.0000000      0.0000000      0.0000000     4
      1.4615547      2.5314861      0.0000000     4
     11.7789400      5.0106192      7.0176162     4
      1.3729947      7.5501179      7.0690121     4
      1.4320353      5.8634967      4.7007780     4
     11.7729082      8.4245863      4.6669423     4
      0.0000000      6.7506302      2.3678560     4
      1.4615547      9.2821163      2.3678560     4
      0.0000000      5.0629721      0.0000000     4
      1.4615547      7.5944582      0.0000000     4
     11.7671929     10.1238585      7.1052341     4
      1.4376809     12.6563222      7.1363129     4
      1.3950014     10.9735988      4.7090189     4
     11.7965910     13.5144222      4.6450853     4
      0.0000000     11.8136023      2.3678560     4
      1.4615547     14.3450905      2.3678560     4
      0.0000000     10.1259463      0.0000000     4
      1.4615547     12.6574324      0.0000000     4
     11.7876549     15.2412979      6.9639703     4
      1.3831263     17.8109049      6.9778569     4
      1.4365350     16.0647060      4.6693815     4
     11.7645855     18.6594986      4.6479342     4
      0.0000000     16.8765765      2.3678560     4
      1.4615547     19.4080626      2.3678560     4
      0.0000000     15.1889185      0.0000000     4
      1.4615547     17.7204045      0.0000000     4
      2.8846120     20.4090374      6.9837115     4
      4.3581368      2.4243000      7.0859866     4
      4.3763118      0.6765756      4.6070113     4
      2.8985786      3.2717646      4.7122053     4
      2.9231083      1.6876581      2.3678560     4
      4.3846630      4.2191441      2.3678560     4
      2.9231083      0.0000000      0.0000000     4
      4.3846630      2.5314861      0.0000000     4
      2.8807373      4.9796208      7.0973475     4
      4.3545352      7.6053676      6.9985729     4
      4.3583327      5.8377059      4.6858683     4
      2.8705426      8.4208739      4.6846636     4
      2.9231083      6.7506302      2.3678560     4
      4.3846630      9.2821163      2.3678560     4
      2.9231083      5.0629721      0.0000000     4
      4.3846630      7.5944582      0.0000000     4
      2.8716857     10.1347132      7.0348852     4
      4.3903316     12.7007470      7.1309618     4
      4.3860374     10.9535719      4.6979648     4
      2.8952354     13.4783152      4.7177578     4
      2.9231083     11.8136023      2.3678560     4
      4.3846630     14.3450905      2.3678560     4
      2.9231083     10.1259463      0.0000000     4
      4.3846630     12.6574324      0.0000000     4
      2.9184695     15.2437992      7.0214240     4
      4.3972372     17.8524856      7.0082030     4
      4.3974524     16.0471135      4.6891768     4
      2.8994841     18.6311021      4.6787399     4
      2.9231083     16.8765765      2.3678560     4
      4.3846630     19.4080626      2.3678560     4
      2.9231083     15.1889185      0.0000000     4
      4.3846630     17.7204045      0.0000000     4
      5.8687736     20.3975292      6.9907268     4
      7.3071565      2.3708693      7.0936776     4
      7.3521314      0.6819490      4.6298899     4
      5.8468421      3.2538572      4.7080697     4
      5.8462177      1.6876581      2.3678560     4
      7.3077713      4.2191441      2.3678560     4
      5.8462177      0.0000000      0.0000000     4
      7.3077713      2.5314861      0.0000000     4
      5.8338079      5.0012171      7.0000592     4
      7.3598237      7.5598476      7.0130887     4
      7.3235338      5.8619764      4.6687627     4
      5.8549763      8.4152487      4.6849173     4
      5.8462177      6.7506302      2.3678560     4
      7.3077713      9.2821163      2.3678560     4
      5.8462177      5.0629721      0.0000000     4
      7.3077713      7.5944582      0.0000000     4
      5.8744707     10.1561568      7.0661413     4
      7.3292140     12.6806342      7.0971928     4
      7.3467690     10.9680416      4.7058653     4
      5.8414264     13.4997167      4.7113634     4
      5.8462177     11.8136023      2.3678560     4
      7.3077713     14.3450905      2.3678560     4
      5.8462177     10.1259463      0.0000000     4
      7.3077713     12.6574324      0.0000000     4
      5.8690132     15.2457848      7.1059775     4
      7.3599377     17.8065419      7.0947846     4
      7.3213749     16.0705186      4.7054743     4
      5.8751776     18.6376492      4.6829223     4
      5.8462177     16.8765765      2.3678560     4
      7.3077713     19.4080626      2.3678560     4
      5.8462177     15.1889185      0.0000000     4
      7.3077713     17.7204045      0.0000000     4
      8.8308570     20.3805364      7.0581370     4
     10.3241317      2.4155623      6.9232422     4
     10.3051170      0.6812223      4.5689027     4
      8.7822088      3.2661609      4.6800268     4
      8.7693260      1.6876581      2.3678560     4
     10.2308808      4.2191441      2.3678560     4
      8.7693260      0.0000000      0.0000000     4
     10.2308808      2.5314861      0.0000000     4
      8.8054923      4.9765083      6.9613734     4
     10.3125502      7.5942447      7.0886670     4
     10.3047427      5.8769261      4.6511163     4
      8.8254336      8.4244241      4.6985540     4
      8.7693260      6.7506302      2.3678560     4
     10.2308808      9.2821163      2.3678560     4
      8.7693260      5.0629721      0.0000000     4
     10.2308808      7.5944582      0.0000000     4
      8.8312125     10.1404905      7.1028023     4
     10.3037307     12.7011530      6.9679535     4
     10.3011749     10.9596475      4.6569369     4
      8.7923800     13.5195258      4.6831323     4
      8.7693260     11.8136023      2.3678560     4
     10.2308808     14.3450905      2.3678560     4
      8.7693260     10.1259463      0.0000000     4
     10.2308808     12.6574324      0.0000000     4
      8.8135240     15.2689737      7.0327020     4
     10.2926737     17.8500907      7.0740456     4
     10.2998791     16.0844995      4.6456125     4
      8.8101001     18.6314725      4.7054019     4
      8.7693260     16.8765765      2.3678560     4
     10.2308808     19.4080626      2.3678560     4
      8.7693260     15.1889185      0.0000000     4
     10.2308808     17.7204045      0.0000000     4
      2.6348909     15.7488127     10.0000000     1
      0.9690319     17.6124133     10.0000000     1
      2.3245076     17.1481633     10.0000000     1
      3.3907694     18.1048035     10.0000000     1
      0.7251808     19.0037496     10.0000000     1
      1.7691447     19.9291293     10.0000000     1
      3.9915130     15.3504448     10.0000000     1
      5.0247578     16.2861046     10.0000000     1
      4.7404358     17.6593994     10.0000000     1
      3.0994226     19.4942678     10.0000000     1
      5.8325431     18.6269535     10.0000000     1
      4.1772636     20.4740063     10.0000000     1
      1.5511423     14.7818883     10.0000000     1
     11.7343040     16.6447439     10.0000000     1
      0.1956526     15.2458591     10.0000000     1
     10.9818137     14.2852057     10.0000000     1
     10.3781487     17.0409210     10.0000000     1
      9.3467718     16.0986220     10.0000000     1
      1.8021837     13.3917251     10.0000000     1
      0.7591299     12.4620186     10.0000000     1
     11.2774023     12.8968536     10.0000000     1
      9.6326088     14.7266704     10.0000000     1
     10.2041321     11.9141571     10.0000000     1
      8.5438072     13.7529816     10.0000000     1
      7.4898049      7.3034226     10.0000000     1
      5.8380974      5.4253189     10.0000000     1
      6.1378216      6.8263823     10.0000000     1
      5.0633336      7.7735056     10.0000000     1
      4.4851385      5.0135752     10.0000000     1
      3.4437445      5.9399246     10.0000000     1
      7.7218615      8.6971564     10.0000000     1
      6.6688871      9.6149213     10.0000000     1
      5.3426890      9.1668420     10.0000000     1
      3.7186453      7.3154591     10.0000000     1
      4.2568124     10.1368342     10.0000000     1
      2.6209383      8.2741899     10.0000000     1
      8.5843636      6.3447339     10.0000000     1
      6.9304054      4.4676960     10.0000000     1
      8.2822151      4.9446310     10.0000000     1
      9.3553468      3.9940292     10.0000000     1
      6.6922041      3.0771602     10.0000000     1
      7.7443705      2.1569988     10.0000000     1
      9.9372292      6.7514103     10.0000000     1
     10.9764126      5.8179857     10.0000000     1
     10.7009632      4.4450231     10.0000000     1
      9.0710128      2.6048055     10.0132384     1
     11.7964953      3.4789981     10.0000000     1
     10.1498198      1.6311049     10.0000000     1
      5.4898822     19.9828365     10.0434976     2
      4.0457019      1.1691637     10.0096436     2
      7.0333746     18.3660851      9.9950070     2
      8.8934879     12.3984147     10.0671466     2
      7.3419634     14.0059383     10.0055916     2
     10.3440558     10.6913815      9.9878576     2
      2.9503537      9.6321296     10.0590398     2
      1.4214754      8.0045358      9.9828679     2
      4.3756654     11.3602848     10.0058046     2
     11.4569111      2.1217305     10.0662800     2
     10.0132837      0.4087270      9.9740368     2
      1.1448943      3.7395540     10.0054816     2
      1.5549139      0.4699422     10.0305065     3
      6.0562427     15.9395322     10.0346701     3
     11.5621652     19.3966980     10.0291649     3
      4.2621999     14.2973544     10.0339972     3
      8.3149805     16.4423657     10.0344173     3
      0.9765031     11.3951184     10.0405397     3
     10.1034978     18.0924330     10.0604824     3
      2.8163933     13.0003110     10.0414599     3
      2.4156436      5.5841099     10.0399826     3
      6.8734557     10.6841353     10.0399418     3
      4.2246978      3.9576401     10.0347245     3
      8.7335074      9.0970713     10.0301629     3
      7.5391922      1.0875892     10.0343506     3
      0.1536878      6.1718969     10.0330073     3
      5.6811334      2.6758025     10.0280385     3
     10.2022315      7.8053549     10.0641340     3
%endblock AtomicCoordinatesAndAtomicSpecies

