SystemName          Water molecule MeshCutoff (FLOS)
SystemLabel         flos_h2o_meshcutoff
NumberOfAtoms       3
NumberOfSpecies     2

MeshCutoff  50. Ry

%block ChemicalSpeciesLabel
 1  8  O      # Species index, atomic number, species label
 2  1  H
%endblock ChemicalSpeciesLabel

AtomicCoordinatesFormat  Ang
%block AtomicCoordinatesAndAtomicSpecies
 0.000  0.000  0.000  1
 0.757  0.586  0.000  2
-0.757  0.586  0.000  2
%endblock AtomicCoordinatesAndAtomicSpecies

MD.TypeOfRun LUA
Lua.Script conv.lua
