NumberOfAtoms   2
LatticeConstant      1.00 Ang

%block LatticeVectors
     2.4600000000000000    0.0000000000000000    0.0000000000000000
    -1.2300000000000000    2.1304224933097191    0.0000000000000000
     0.0000000000000000    0.0000000000000000   20.0000000000000000
%endblock LatticeVectors

AtomicCoordinatesFormat   Fractional
%block AtomicCoordinatesAndAtomicSpecies
  0.3333333333333357  0.6666666666666643  0.0000000000000000  1
  0.6666666666666643  0.3333333333333357  0.0000000000000000   1
%endblock AtomicCoordinatesAndAtomicSpecies
