NumberOfSpecies     1

%block ChemicalSpeciesLabel
 1  1  H_dzp      # Species index, atomic number, species label
%endblock ChemicalSpeciesLabel

PAO.basis-size DZP
PAO.energy-shift 300 meV
