##### GENERAL SYSTEM DESCRIPTORS ##############################################

SystemName	Graphite. VDW-DF. Unconverged test.
SystemLabel     graphite_vdw_df
NumberOfAtoms        4

NumberOfSpecies      1
%block ChemicalSpeciesLabel
    1   6   C.vdw
%endblock ChemicalSpeciesLabel

##### GEOMETRY ################################################################

LatticeConstant 1.0 Ang
%block LatticeParameters
    2.4610    2.4610    6.7080   90.0000   90.0000  120.0000
%endblock LatticeParameters

AtomicCoordinatesFormat Fractional
%block AtomicCoordinatesAndAtomicSpecies
    0.000000000    0.000000000    0.000000000     1
    0.000000000    0.000000000    0.500000000     1
    0.333333333    0.666666667    0.000000000     1
    0.666666667    0.333333333    0.500000000     1
%endblock AtomicCoordinatesAndAtomicSpecies

##### FUNCTIONAL ##############################################################

XC_functional  VDW
XC_authors     VV 

##### PRECISION PARAMETERS ####################################################

%block PS.lmax
   C.vdw   2
%endblock PS.lmax

PAO.EnergyShift  50. meV

FilterCutoff    100. Ry
MeshCutoff      100. Ry
KgridCutoff       5. Ang

##### TASK SPECIFIERS #########################################################

DM.UseSaveDM       no

##### OUTPUT OPTIONS ##########################################################

alloc_report_level      2
timer_report_threshold  1.e-4



