SystemName          Water molecule
SystemLabel         h2o_dos
NumberOfAtoms       3
NumberOfSpecies     2

MeshCutoff  50 Ry

%block Projected-density-of-states
-26.00 4.00 0.200 500 eV
%endblock Projected-density-of-states

%block kgrid_Monkhorst_Pack
   2  0  0  0.5
   0  2  0  0.5
   0  0  2  0.5
%endblock kgrid_Monkhorst_Pack

%block ChemicalSpeciesLabel
 1  8  O      # Species index, atomic number, species label
 2  1  H
%endblock ChemicalSpeciesLabel

AtomicCoordinatesFormat  Ang
%block AtomicCoordinatesAndAtomicSpecies
 0.000  0.000  0.000  1
 0.757  0.586  0.000  2
-0.757  0.586  0.000  2
%endblock AtomicCoordinatesAndAtomicSpecies
