NumberOfAtoms        3

NumberOfSpecies      2
%block ChemicalSpeciesLabel
    1   8 O_am05
    2   1 H_am05
%endblock ChemicalSpeciesLabel

LatticeConstant 1.0 Ang
%block LatticeParameters
    8.0000    8.0000    8.0000   90.0000   90.0000   90.0000
%endblock LatticeParameters

AtomicCoordinatesFormat Fractional
%block AtomicCoordinatesAndAtomicSpecies
    0.000000000    0.000000000    0.000000000     1
    0.937500000    0.107500000    0.000000000     2
    0.937500000    0.892500000    0.000000000     2
%endblock AtomicCoordinatesAndAtomicSpecies

MD.TypeOfRun CG
MD.NumCGSteps 0
MD.VariableCell false
MD.MaxStressTol 200 bar

SolutionMethod diagon
DM.NumberPulay 3

MeshCutoff 200 Ry

PAO.SplitNorm    0.15
PAO.BasisType    split
PAO.SplitNormH   0.50

PAO.SoftDefault true
PAO.SoftPotential 100.0 Ry
PAO.SoftInnerRadius 0.95

%block PAO.Basis
O_am05     3 
 n=2    0    2
   7.0 0.0 
   1.0 1.0 
 n=2    1    2
   7.0 0.0
   1.0 1.0
 n=3    2    1 E 120.0 0.00
   7.0 
   1.0 
H_am05  2
 n=1 0 2
   7.0 0.0 
   1.0 1.0 
 n=2 1 1  E 70.0 0.0
   3.5 
   1.0 
%endblock PAO.Basis

xc.functional         GGA
xc.authors            AM05

LongOutput true
UseSaveData false
