
SystemName  bulk_au_111 
SystemLabel bulk_au_111

==================================================
==================================================
# SPECIES AND BASIS

# Number of species 
NumberOfSpecies 1
%block ChemicalSpeciesLabel
  1  79 Au 
%endblock ChemicalSpeciesLabel

PAO.BasisSize    SZP
PAO.EnergyShift  0.005 Ry

==================================================
==================================================
# K-points

%block kgrid_Monkhorst_Pack
8   0   0   0.0
0   8   0   0.0
0   0   60  0.5
%endblock kgrid_Monkhorst_Pack

==================================================
==================================================
# UNIT CELL AND ATOMIC POSITIONS

# UNIT CELL
LatticeConstant       2.92311 Ang
%block LatticeVectors
1.000000000   0.00000000000   0.0000000000
0.500000000   0.86602540378   0.0000000000
0.000000000   0.00000000000   2.4494897428
%endblock LatticeVectors

# Atomic coordinates
NumberOfAtoms 3
AtomicCoordinatesFormat ScaledCartesian
%block AtomicCoordinatesAndAtomicSpecies
       0.000000000       0.000000000       0.000000000    1
       0.500000000       0.288675135       0.816496581    1
       0.500000000      -0.288675135       1.632993162    1
%endblock AtomicCoordinatesAndAtomicSpecies

%block SuperCell
1 0 0
0 1 0
0 0 3
%endblock SuperCell

==================================================
==================================================
# General variables

ElectronicTemperature  100 K 
MeshCutoff           350. Ry
xc.functional         LDA           # Exchange-correlation functional
xc.authors            CA 
SpinPolarized .false.
SolutionMethod Transiesta 

==================================================
==================================================
# SCF variables

DM.MixSCF1   T
MaxSCFIterations      300           # Maximum number of SCF iter
DM.MixingWeight       0.03          # New DM amount for next SCF cycle
DM.Tolerance          1.d-4         # Tolerance in maximum difference
DM.UseSaveDM          true          # to use continuation files
DM.NumberPulay         5
Diag.DivideAndConquer  no
Diag.ParallelOverK     yes

==================================================
==================================================
# MD variables

MD.FinalTimeStep 1
MD.TypeOfRun CG
MD.NumCGsteps     000
MD.UseSaveXV      .true.

==================================================
==================================================
# Output variables

WriteMullikenPop                1
WriteBands                      .false.
SaveRho                         .false.
SaveDeltaRho                    .false.
SaveHS                          .false.
SaveElectrostaticPotential      True 
SaveTotalPotential              no
WriteCoorXmol                   .true.
WriteMDXmol                     .true.
WriteMDhistory                  .false.
WriteEigenvalues                yes

==================================================
==================================================

TS.Voltage    0.00000 eV
%block TS.ChemPots
  Left
  Right
%endblock TS.ChemPots

%block TS.ChemPot.Left
  mu V/2
  contour.eq
    begin
      c-Left
      t-Left
    end
%endblock TS.ChemPot.Left
%block TS.ChemPot.Right
  mu -V/2
  contour.eq
    begin
      c-Right
      t-Right
    end
%endblock TS.ChemPot.Right

TS.Elecs.Bulk true
TS.Elecs.DM.Update none
# This is for testing purposes!
# DO NOT USE IF YOU DO NOT UNDERSTAND!
TS.Elecs.Neglect.Principal true
TS.Elecs.GF.ReUse true
%block TS.Elecs
  Left
  Right
%endblock TS.Elecs

%block TS.Elec.Left
  TSHS ./elec_au_111_abc.TSHS
  chem-pot Left
  semi-inf-dir -a3
  elec-pos begin 1
%endblock TS.Elec.Left

%block TS.Elec.Right
  TSHS ./elec_au_111_abc.TSHS
  chem-pot Right
  semi-inf-dir +a3
  elec-pos end -1
%endblock TS.Elec.Right

TS.Contours.Eq.Pole    2.50000 eV
%block TS.Contour.c-Left
  part circle
   from  -40.00000 eV + V/2 to -10. kT + V/2
    points 30
     method g-legendre
%endblock TS.Contour.c-Left
%block TS.Contour.t-Left
  part tail
   from prev to inf
    points 10
     method g-fermi
%endblock TS.Contour.t-Left
%block TS.Contour.c-Right
  part circle
   from  -40.00000 eV - V/2 to -10. kT - V/2
    points 30
     method g-legendre
%endblock TS.Contour.c-Right
%block TS.Contour.t-Right
  part tail
   from prev to inf
    points 10
     method g-fermi
%endblock TS.Contour.t-Right

TS.Elecs.Eta    0.0001000000 eV
%block TS.Contours.nEq
  neq
%endblock TS.Contours.nEq
%block TS.Contour.nEq.neq
  part line
   from -|V|/2 - 5 kT to |V|/2 + 5 kT
    delta 0.01 eV
     method mid-rule
%endblock TS.Contour.nEq.neq



# TBtrans options

TBT.Elecs.Eta    0.0001 eV
%block TBT.Contours
  neq
%endblock TBT.Contours

%block TBT.Contour.neq
  part line
   from   -0.50000 eV to    0.50000 eV
    delta    0.01000 eV
     method mid-rule
%endblock TBT.Contour.neq
