#
# Ba with 5 orbital shells
# Note that 5s and 5p are "semicore" states,
# so there will be 2 KB projectors for each of the s and p channels
#
NumberOfSpecies		1
%block ChemicalSpeciesLabel
      1      56     Ba_default
%endblock ChemicalSpeciesLabel


%block PAO.Basis
Ba_default    5     
 n=5    0    1   
   0.0
 n=6    0    2  
   0.0 0.0
 n=5    1    1  
   0.0
 n=5    2    1  
   0.0
 n=6    1    1  
   0.0
%endblock PAO.Basis



