NumberOfSpecies		1
%block ChemicalSpeciesLabel
      1      56     Ba_optim
%endblock ChemicalSpeciesLabel

%block PS.lmax
   Ba_optim    3
%endblock PS.lmax

PAO.BasisType    split 
%block PAO.Basis
Ba_optim    5      0.70
 n=5    0    1   E     98.95      5.90
   6.39899920099572
   1.00000000000000
 n=6    0    2   E     97.95      6.50
   6.99956358549850        5.99949655050583
   1.00000000000000        1.00000000000000
 n=5    1    1   E     96.95      6.09
   6.59922580635556
   1.00000000000000
 n=5    2    1   E     95.95      6.60
   7.09995685034315
   1.00000000000000
 n=6    1    1   E     94.96      6.60
   7.09996103032325
   1.00000000000000
%endblock PAO.Basis



