
SolutionMethod        Transiesta

SystemName  Au 100 with gold chain
SystemLabel au_100



==================================================
==================================================
# SPECIES AND BASIS

# Number of species 
NumberOfSpecies 1
%block ChemicalSpeciesLabel
  1  79 Au 
%endblock ChemicalSpeciesLabel

PAO.BasisSize    SZP
PAO.EnergyShift  0.005 Ry
XC.functional   GGA
XC.authors      PBE


==================================================
==================================================
# K-points

%block kgrid_Monkhorst_Pack
 2    0    0    0.0
 0    2    0    0.0
 0    0    2    0.0
%endblock kgrid_Monkhorst_Pack



==================================================
==================================================
# Structure
NumberOfAtoms 112
LatticeConstant 1.0 Ang
%block LatticeVectors
     8.651160000      0.000000000      0.000000000 
     0.000000000      8.651160000      0.000000000 
     0.000000000      0.000000000     32.625600000
%endblock LatticeVectors
AtomicCoordinatesFormat  Ang
%block AtomicCoordinatesAndAtomicSpecies
     0.000000000      0.000000000      0.000000000 1 # 1. layer
     2.883720000      0.000000000      0.000000000 1
     5.767440000      0.000000000      0.000000000 1
     0.000000000      2.883720000      0.000000000 1
     2.883720000      2.883720000      0.000000000 1
     5.767440000      2.883720000      0.000000000 1
     0.000000000      5.767440000      0.000000000 1
     2.883720000      5.767440000      0.000000000 1
     5.767440000      5.767440000      0.000000000 1
     1.441860000      1.441860000      2.039100000 1 # 2. layer
     4.325580000      1.441860000      2.039100000 1
     7.209300000      1.441860000      2.039100000 1
     1.441860000      4.325580000      2.039100000 1
     4.325580000      4.325580000      2.039100000 1
     7.209300000      4.325580000      2.039100000 1
     1.441860000      7.209300000      2.039100000 1
     4.325580000      7.209300000      2.039100000 1
     7.209300000      7.209300000      2.039100000 1
     0.000000000      0.000000000      4.078200000 1 # 3. layer
     2.883720000      0.000000000      4.078200000 1
     5.767440000      0.000000000      4.078200000 1
     0.000000000      2.883720000      4.078200000 1
     2.883720000      2.883720000      4.078200000 1
     5.767440000      2.883720000      4.078200000 1
     0.000000000      5.767440000      4.078200000 1
     2.883720000      5.767440000      4.078200000 1
     5.767440000      5.767440000      4.078200000 1
     1.441860000      1.441860000      6.117300000 1 # 4. layer
     4.325580000      1.441860000      6.117300000 1
     7.209300000      1.441860000      6.117300000 1
     1.441860000      4.325580000      6.117300000 1
     4.325580000      4.325580000      6.117300000 1
     7.209300000      4.325580000      6.117300000 1
     1.441860000      7.209300000      6.117300000 1
     4.325580000      7.209300000      6.117300000 1
     7.209300000      7.209300000      6.117300000 1
     0.000000000      0.000000000      8.156400000 1 # 5. layer
     2.883720000      0.000000000      8.156400000 1
     5.767440000      0.000000000      8.156400000 1
     0.000000000      2.883720000      8.156400000 1
     2.883720000      2.883720000      8.156400000 1
     5.767440000      2.883720000      8.156400000 1
     0.000000000      5.767440000      8.156400000 1
     2.883720000      5.767440000      8.156400000 1
     5.767440000      5.767440000      8.156400000 1
     1.441860000      1.441860000     10.195500000 1 # 6. layer
     4.325580000      1.441860000     10.195500000 1
     7.209300000      1.441860000     10.195500000 1
     1.441860000      4.325580000     10.195500000 1
     4.325580000      4.325580000     10.195500000 1
     7.209300000      4.325580000     10.195500000 1
     1.441860000      7.209300000     10.195500000 1
     4.325580000      7.209300000     10.195500000 1
     7.209300000      7.209300000     10.195500000 1
     0.000000000      0.000000000     12.234600000 1 # 7. layer
     1.441860000      1.441860000     14.273700000 1 # 8. layer
     0.000000000      0.000000000     16.312800000 1 # 9. layer
     1.441860000      1.441860000     18.351900000 1 # 10. layer
     0.000000000      0.000000000     20.391000000 1 # 11. layer
     2.883720000      0.000000000     20.391000000 1
     5.767440000      0.000000000     20.391000000 1
     0.000000000      2.883720000     20.391000000 1
     2.883720000      2.883720000     20.391000000 1
     5.767440000      2.883720000     20.391000000 1
     0.000000000      5.767440000     20.391000000 1
     2.883720000      5.767440000     20.391000000 1
     5.767440000      5.767440000     20.391000000 1
     1.441860000      1.441860000     22.430100000 1 # 12. layer
     4.325580000      1.441860000     22.430100000 1
     7.209300000      1.441860000     22.430100000 1
     1.441860000      4.325580000     22.430100000 1
     4.325580000      4.325580000     22.430100000 1
     7.209300000      4.325580000     22.430100000 1
     1.441860000      7.209300000     22.430100000 1
     4.325580000      7.209300000     22.430100000 1
     7.209300000      7.209300000     22.430100000 1
     0.000000000      0.000000000     24.469200000 1 # 13. layer
     2.883720000      0.000000000     24.469200000 1
     5.767440000      0.000000000     24.469200000 1
     0.000000000      2.883720000     24.469200000 1
     2.883720000      2.883720000     24.469200000 1
     5.767440000      2.883720000     24.469200000 1
     0.000000000      5.767440000     24.469200000 1
     2.883720000      5.767440000     24.469200000 1
     5.767440000      5.767440000     24.469200000 1
     1.441860000      1.441860000     26.508300000 1 # 14. layer
     4.325580000      1.441860000     26.508300000 1
     7.209300000      1.441860000     26.508300000 1
     1.441860000      4.325580000     26.508300000 1
     4.325580000      4.325580000     26.508300000 1
     7.209300000      4.325580000     26.508300000 1
     1.441860000      7.209300000     26.508300000 1
     4.325580000      7.209300000     26.508300000 1
     7.209300000      7.209300000     26.508300000 1
     0.000000000      0.000000000     28.547400000 1 # 15. layer
     2.883720000      0.000000000     28.547400000 1
     5.767440000      0.000000000     28.547400000 1
     0.000000000      2.883720000     28.547400000 1
     2.883720000      2.883720000     28.547400000 1
     5.767440000      2.883720000     28.547400000 1
     0.000000000      5.767440000     28.547400000 1
     2.883720000      5.767440000     28.547400000 1
     5.767440000      5.767440000     28.547400000 1
     1.441860000      1.441860000     30.586500000 1 # 16. layer
     4.325580000      1.441860000     30.586500000 1
     7.209300000      1.441860000     30.586500000 1
     1.441860000      4.325580000     30.586500000 1
     4.325580000      4.325580000     30.586500000 1
     7.209300000      4.325580000     30.586500000 1
     1.441860000      7.209300000     30.586500000 1
     4.325580000      7.209300000     30.586500000 1
     7.209300000      7.209300000     30.586500000 1
%endblock AtomicCoordinatesAndAtomicSpecies


==================================================
==================================================
# SCF variables

DM.MixSCF1   T
MaxSCFIterations      300           # Maximum number of SCF iter
DM.MixingWeight       0.05          # New DM amount for next SCF cycle
DM.Tolerance          1.d-4         # Tolerance in maximum difference
DM.UseSaveDM          true          # to use continuation files
DM.NumberPulay        5
TS.MixH               yes

==================================================
==================================================
# MD variables

MD.FinalTimeStep 1
MD.TypeOfRun CG
MD.NumCGsteps     000
MD.UseSaveXV      .true.

==================================================
==================================================
# Output variables

WriteMullikenPop                1
WriteBands                      .false.
SaveRho                         .false.
SaveDeltaRho                    .false.
SaveHS                          .false.
SaveElectrostaticPotential      True 
SaveTotalPotential              no
WriteCoorXmol                   .true.
WriteMDXmol                     .true.
WriteMDhistory                  .false.
WriteEigenvalues                yes



==================================================
==================================================

TS.Voltage 0.0 eV
%block TS.ChemPots
  Left
  Right
%endblock TS.ChemPots

%block TS.ChemPot.Left
  mu V/2
  contour.eq
    begin
      c-Left
      t-Left
    end
%endblock TS.ChemPot.Left
%block TS.ChemPot.Right
  mu -V/2
  contour.eq
    begin
      c-Right
      t-Right
    end
%endblock TS.ChemPot.Right

TS.Elecs.Bulk true
TS.Elecs.DM.Update none
TS.Elecs.GF.ReUse false
%block TS.Elecs
  Left
  Right
%endblock TS.Elecs

%block TS.Elec.Left
  TSHS ./elec_au_100.TSHS
  chem-pot Left
  semi-inf-dir -a3
  elec-pos begin 1
  used-atoms 4
  bloch-a1 3
  bloch-a2 3
%endblock TS.Elec.Left

%block TS.Elec.Right
  TSHS ./elec_au_100.TSHS
  chem-pot Right
  semi-inf-dir +a3
  elec-pos end -1
  used-atoms 4
  bloch-a1 3
  bloch-a2 3
%endblock TS.Elec.Right

TS.Contours.Eq.Pole 2.5 eV
%block TS.Contour.c-Left
  part circle
   from   -40.00000 eV + V/2 to -10. kT + V/2
    points 30
     method g-legendre
%endblock TS.Contour.c-Left
%block TS.Contour.t-Left
  part tail
   from prev to inf
    points 10
     method g-fermi
%endblock TS.Contour.t-Left
%block TS.Contour.c-Right
  part circle
   from   -40.00000 eV - V/2 to -10. kT - V/2
    points 30
     method g-legendre
%endblock TS.Contour.c-Right
%block TS.Contour.t-Right
  part tail
   from prev to inf
    points 10
     method g-fermi
%endblock TS.Contour.t-Right

TS.Contours.nEq.Eta    0.0001 eV
%block TS.Contours.nEq
  neq
%endblock TS.Contours.nEq
%block TS.Contour.nEq.neq
  part line
   from -|V|/2 - 5. kT to |V|/2 + 5. kT
    delta 0.01 eV
     method mid-rule
%endblock TS.Contour.nEq.neq

