SystemLabel elec

SolutionMethod diagon

%block kgrid_Monkhorst_Pack
     60    0    0    0.0
      0  101    0    0.0
      0    0    1    0.0
%endblock kgrid_Monkhorst_Pack

LatticeConstant 1. Ang
%block LatticeVectors
 6.5025 3.75422012541 0.0
 2.1675 -1.25140670847 0.0
 0.0 0.0 14.45
%endblock LatticeVectors

NumberOfAtoms 6
AtomicCoordinatesFormat Ang
%block AtomicCoordinatesAndAtomicSpecies
 0.00000 0.00000 0.00000 1 # 1
 1.44500 0.00000 0.00000 1 # 2
 2.16750 1.25141 0.00000 1 # 3
 3.61250 1.25141 0.00000 1 # 4
 4.33500 2.50281 0.00000 1 # 5
 5.78000 2.50281 0.00000 1 # 6
%endblock AtomicCoordinatesAndAtomicSpecies

NumberOfSpecies 1
%block ChemicalSpeciesLabel
 1 6 C
%endblock ChemicalSpeciesLabel
%block PS.Lmax
  C 2
%endblock

PAO.BasisType         split
PAO.BasisSize         SZP
PAO.SplitNorm         0.15
PAO.EnergyShift       275 meV

MeshCutoff              250. Ry
XC.functional           LDA
XC.authors              PZ
SolutionMethod          transiesta

ElectronicTemperature   300 K
OccupationFunction      FD

MinSCFIterations       3
MaxSCFIterations       200
DM.MixingWeight        0.1
DM.Tolerance           0.0001
DM.NumberPulay         6
DM.UseSaveDM           .true.
DM.MixSCF1             .true.

MD.NumCGSteps 0

Diag.ParallelOverK T

WriteMullikenPop                1
WriteForces                     T
SaveHS                          T
