SystemLabel graphene-UA

SolutionMethod transiesta

%block kgrid_Monkhorst_Pack
     10    0    0    0.0
      0  101    0    0.0
      0    0    1    0.0
%endblock kgrid_Monkhorst_Pack

LatticeConstant 1. Ang
%block LatticeVectors
 19.5075 11.2626603762 0.0
 2.1675 -1.25140670847 0.0
 0.0 0.0 14.45
%endblock LatticeVectors

NumberOfAtoms 18
AtomicCoordinatesFormat Ang
%block AtomicCoordinatesAndAtomicSpecies
 0.00000 0.00000 0.00000 1 # 1
 1.44500 0.00000 0.00000 1 # 2
 2.16750 1.25141 0.00000 1 # 3
 3.61250 1.25141 0.00000 1 # 4
 4.33500 2.50281 0.00000 1 # 5
 5.78000 2.50281 0.00000 1 # 6
 6.50250 3.75422 0.00000 1 # 7
 7.94750 3.75422 0.00000 1 # 8
 8.67000 5.00563 0.00000 1 # 9
 10.11500 5.00563 0.00000 1 # 10
 10.83750 6.25703 0.00000 1 # 11
 12.28250 6.25703 0.00000 1 # 12
 13.00500 7.50844 0.00000 1 # 13
 14.45000 7.50844 0.00000 1 # 14
 15.17250 8.75985 0.00000 1 # 15
 16.61750 8.75985 0.00000 1 # 16
 17.34000 10.01125 0.00000 1 # 17
 18.78500 10.01125 0.00000 1 # 18
%endblock AtomicCoordinatesAndAtomicSpecies

NumberOfSpecies 1
%block ChemicalSpeciesLabel
 1 6 C
%endblock ChemicalSpeciesLabel
%block PS.Lmax
  C 2
%endblock

PAO.BasisType         split
PAO.BasisSize         SZP
PAO.SplitNorm         0.15
PAO.EnergyShift       275 meV

MeshCutoff              250. Ry
XC.functional           LDA
XC.authors              PZ
SolutionMethod          transiesta

ElectronicTemperature   300 K
OccupationFunction      FD

MinSCFIterations       3
MaxSCFIterations       200
DM.MixingWeight        0.1
DM.Tolerance           0.0001
DM.NumberPulay         6
DM.UseSaveDM           .true.
DM.MixSCF1             .true.

MD.NumCGSteps 0

WriteMullikenPop                1
WriteForces                     T
SaveHS                          T

%block TS.ChemPots
  Left
  Right
%endblock TS.ChemPots

%block TS.ChemPot.Left
  mu V/2
  contour.eq
    begin
      C-Left
      T-Left
    end
%endblock TS.ChemPot.Left
%block TS.ChemPot.Right
  mu -V/2
  contour.eq
    begin
      C-Right
      T-Right
    end
%endblock TS.ChemPot.Right

TS.Contours.Eq.Pole 2.5 eV
%block TS.Contour.C-Left
  part circle
   from -40. eV + V/2 to -10 kT + V/2
     points 25
      method g-legendre
%endblock TS.Contour.C-Left
%block TS.Contour.T-Left
  part tail
   from prev to inf
     points 10
      method g-fermi
%endblock TS.Contour.T-Left
%block TS.Contour.C-Right
  part circle
   from -40. eV -V/2 to -10 kT -V/2
     points 25
      method g-legendre
%endblock TS.Contour.C-Right
%block TS.Contour.T-Right
  part tail
   from prev to inf
     points 10
      method g-fermi
%endblock TS.Contour.T-Right

%block TS.Contours.nEq
  neq-1
%endblock TS.Contours.nEq
%block TS.Contour.nEq.neq-1
  part line
   from -|V|/2 - 5 kT to |V|/2 + 5 kT
     delta 0.01 eV
      method mid-rule
%endblock TS.Contour.nEq.neq-1

# We have 2 electrodes
%block TS.Elecs
  Left
  Right
%endblock TS.Elecs

%block TS.Elec.Left
  TSHS ../elec/elec.TSHS
  chemical-potential Left
  semi-inf-direction -a1
  electrode-position 3
  used-atoms 4
%endblock TS.Elec.Left
%block TS.Elec.Right
  TSHS ../elec/elec.TSHS
  chemical-potential Right
  semi-inf-direction +a1
  electrode-position end -3
  used-atoms 4
%endblock TS.Elec.Right

# Define buffers
%block TS.Atoms.Buffer
  atom 1 2 -1 -2
%endblock


# TBtrans allows k-points along self-energy directions
# when using mis-aligned electrodes.
# Hence you MUST specify the k-grid
%block TBT.k
  diag 1 101 1
%endblock
TBT.DOS.A T

%block TBT.Contours
    line
%endblock TBT.Contours
%block TBT.Contour.line
  part line
     from -1. eV to 1. eV
      delta 0.01 eV
        method mid-rule
%endblock TBT.Contour.line
