# Water molecule for testing charge confinement

SystemName          Water monomer for basis tests
SystemLabel         chargeconf-h2o

NumberOfSpecies        2
NumberOfAtoms          3 

%block ChemicalSpeciesLabel
  1   8  O
  2   1  H  
%endblock ChemicalSpeciesLabel

%block PAO.Basis
O    3
n=2   0   3   E   50. 8.0
    8.0   3.5   2.0
n=2   1   3   Q   0.0 0.0 0.1  E   10. 8.0
    8.0   3.5   2.0
n=3   2   1   E   50. 9.0 Q  8.5 0.4 
    8.0   
H    2
n=1   0   3   E   50. 8.0
    8.0   3.5   2.0
n=2   1   1   E   50. 9.0 Q  5.5 0.5
    8.0  
%endblock PAO.Basis

LatticeConstant       20.00 Ang    # Lattice constant alat (3% larger)
%block LatticeVectors   
  1.0  0.0  0.0
  0.0  1.0  0.0
  0.0  0.0  1.0
%endblock LatticeVectors   

XC.Functional        GGA
XC.Authors           PBE

MeshCutoff           200.0 Ry       # Mesh cutoff. real space mesh

# SCF options
DM.MixingWeight       0.3           # New DM amount for next SCF cycle
DM.Tolerance          1.d-5         # Tolerance in maximum difference
DM.NumberPulay         3
DM.UseSaveDM

SolutionMethod        diagon        # OrderN or Diagon
ElectronicTemperature  5 meV        # Temp. for Fermi smearing

MD.TypeOfRun          CG            # Type of dynamics:
MD.NumCGsteps         0             # Number of CG steps for

AtomicCoordinatesFormat Ang
%block AtomicCoordinatesAndAtomicSpecies 
     0.401406    0.437428    0.768445  1
     0.004485   -0.004402    0.000174  2
     0.004730   -0.004345    1.536873  2
%endblock AtomicCoordinatesAndAtomicSpecies 
