SystemName          ptcda
SystemLabel         ptcda

NumberOfAtoms      76
NumberOfSpecies       3

%block ChemicalSpeciesLabel
  1   6  C_2
  2   8  O
  3   1  H
%endblock ChemicalSpeciesLabel

PAO.BasisSize    SZ
PAO.EnergyShift  0.005 Ry

XC.functional    GGA
XC.authors       PBE


LatticeConstant      1.0000 Ang
%block LatticeVectors
  11.851110    0.00000   0.00000
    0.00000   20.52670   0.00000
    0.00000    0.00000  25.00000
%endblock LatticeVectors

MeshCutoff          225.0 Ry

DM.MixingWeight      0.03
DM.NumberPulay       10
DM.Tolerance         1.d-4

SolutionMethod       diagon

DivideAndConquer      true


MD.TypeOfRun          CG
MD.NumCGSteps         0 

# SaveElectrostaticPotential   true
SaveHS                       true

DM.UseSaveDM                 true


AtomicCoordinatesFormat Ang
%block AtomicCoordinatesAndAtomicSpecies
      2.6348909     15.7488127     10.0000000     1
      0.9690319     17.6124133     10.0000000     1
      2.3245076     17.1481633     10.0000000     1
      3.3907694     18.1048035     10.0000000     1
      0.7251808     19.0037496     10.0000000     1
      1.7691447     19.9291293     10.0000000     1
      3.9915130     15.3504448     10.0000000     1
      5.0247578     16.2861046     10.0000000     1
      4.7404358     17.6593994     10.0000000     1
      3.0994226     19.4942678     10.0000000     1
      5.8325431     18.6269535     10.0000000     1
      4.1772636     20.4740063     10.0000000     1
      1.5511423     14.7818883     10.0000000     1
     11.7343040     16.6447439     10.0000000     1
      0.1956526     15.2458591     10.0000000     1
     10.9818137     14.2852057     10.0000000     1
     10.3781487     17.0409210     10.0000000     1
      9.3467718     16.0986220     10.0000000     1
      1.8021837     13.3917251     10.0000000     1
      0.7591299     12.4620186     10.0000000     1
     11.2774023     12.8968536     10.0000000     1
      9.6326088     14.7266704     10.0000000     1
     10.2041321     11.9141571     10.0000000     1
      8.5438072     13.7529816     10.0000000     1
      7.4898049      7.3034226     10.0000000     1
      5.8380974      5.4253189     10.0000000     1
      6.1378216      6.8263823     10.0000000     1
      5.0633336      7.7735056     10.0000000     1
      4.4851385      5.0135752     10.0000000     1
      3.4437445      5.9399246     10.0000000     1
      7.7218615      8.6971564     10.0000000     1
      6.6688871      9.6149213     10.0000000     1
      5.3426890      9.1668420     10.0000000     1
      3.7186453      7.3154591     10.0000000     1
      4.2568124     10.1368342     10.0000000     1
      2.6209383      8.2741899     10.0000000     1
      8.5843636      6.3447339     10.0000000     1
      6.9304054      4.4676960     10.0000000     1
      8.2822151      4.9446310     10.0000000     1
      9.3553468      3.9940292     10.0000000     1
      6.6922041      3.0771602     10.0000000     1
      7.7443705      2.1569988     10.0000000     1
      9.9372292      6.7514103     10.0000000     1
     10.9764126      5.8179857     10.0000000     1
     10.7009632      4.4450231     10.0000000     1
      9.0710128      2.6048055     10.0132384     1
     11.7964953      3.4789981     10.0000000     1
     10.1498198      1.6311049     10.0000000     1
      5.4898822     19.9828365     10.0434976     2
      4.0457019      1.1691637     10.0096436     2
      7.0333746     18.3660851      9.9950070     2
      8.8934879     12.3984147     10.0671466     2
      7.3419634     14.0059383     10.0055916     2
     10.3440558     10.6913815      9.9878576     2
      2.9503537      9.6321296     10.0590398     2
      1.4214754      8.0045358      9.9828679     2
      4.3756654     11.3602848     10.0058046     2
     11.4569111      2.1217305     10.0662800     2
     10.0132837      0.4087270      9.9740368     2
      1.1448943      3.7395540     10.0054816     2
      1.5549139      0.4699422     10.0305065     3
      6.0562427     15.9395322     10.0346701     3
     11.5621652     19.3966980     10.0291649     3
      4.2621999     14.2973544     10.0339972     3
      8.3149805     16.4423657     10.0344173     3
      0.9765031     11.3951184     10.0405397     3
     10.1034978     18.0924330     10.0604824     3
      2.8163933     13.0003110     10.0414599     3
      2.4156436      5.5841099     10.0399826     3
      6.8734557     10.6841353     10.0399418     3
      4.2246978      3.9576401     10.0347245     3
      8.7335074      9.0970713     10.0301629     3
      7.5391922      1.0875892     10.0343506     3
      0.1536878      6.1718969     10.0330073     3
      5.6811334      2.6758025     10.0280385     3
     10.2022315      7.8053549     10.0641340     3
%endblock AtomicCoordinatesAndAtomicSpecies

