SystemName              SOC FePt Z-alignment y
SystemLabel             SOC_FePt_zy

Spin    SOC
%block DM.InitSpin
 1  +1.  90.  90.
 2  +1.  90.  90.
%endblock DM.InitSpin

NumberOfAtoms           2
NumberOfSpecies         2
%block Chemical_Species_label
        1       26      Fe_SOC
        2       78      Pt_SOC
%endblock Chemical_Species_label

PAO.EnergyShift  100 meV
PAO.SplitNorm      0.15
%Block PAO.Basis
 Fe_SOC   2
   n=4   0   2   P
    0.0   0.0
   n=3   2   2
    0.0   0.0
 Pt_SOC   2
   n=6     0       2    P
    0.00000     0.00000
   n=5     2       2
    0.00000     0.00000
%EndBlock PAO.Basis

AtomicCoordinatesFormat NotScaledCartesianAng
LatticeConstant  1.0 Ang
%block LatticeVectors
    2.793068700    0.000000000    0.000000000
    0.000000000    2.793068700    0.000000000
    0.000000000    0.000000000    3.792000000
%endblock LatticeVectors

%block AtomicCoordinatesAndAtomicSpecies
    1.396535500    1.396535500    0.000000000  1
    0.000000000    0.000000000    1.896000000  2
%endblock AtomicCoordinatesAndAtomicSpecies


# Original test had: 41 41 20
%block kgrid_Monkhorst_Pack
  12   0   0    0.0
   0  12   0    0.0
   0   0   8    0.5
%endblock kgrid_Monkhorst_Pack

XC.functional           GGA
XC.authors              PBE

# Original test had: 2200 Ry
MeshCutoff              350. Ry

SolutionMethod          diagon

ElectronicTemperature   50 meV

MaxSCFIterations        15
SCF.MustConverge false

DM.MixingWeight         0.01
DM.NumberPulay          6
DM.UseSaveDM            F
DM.NumberKick           50

WriteMullikenPop       1
WriteForces            T
WriteCoorStep          T
