SystemName          Linear Fe3 cluster (with subset eig-calculation)
SystemLabel         fe_nc_numberofeig
NumberOfAtoms       3
NumberOfSpecies     1

Spin NC
NumberOfEigenstates -6
# All LAPACK/ScaLAPACK should have the expert driver
Diag.Algorithm expert

%block ChemicalSpeciesLabel
 1  26  fe_nc      # Species index, atomic number, species label
%endblock ChemicalSpeciesLabel

LatticeConstant    1.0 Bohr
%block LatticeVectors
 12.000   0.000   0.000
  0.000  12.000   0.000
  0.000   0.000  20.000
%endblock LatticeVectors

# The bug only appeared in the k-point code
%block kgrid_Monkhorst_Pack
   2  0  0  0.5
   0  2  0  0.5
   0  0  2  0.5
%endblock kgrid_Monkhorst_Pack

AtomicCoordinatesFormat  NotScaledCartesianBohr
%block AtomicCoordinatesAndAtomicSpecies
  0.000   0.000   3.644  1
  0.000   0.000   0.000  1
  0.000   0.000  -3.644  1
%endblock AtomicCoordinatesAndAtomicSpecies

PAO.BasisType    split
PAO.SplitNorm    0.15
%block PAO.BasisAndPSlmax
  1   26   2   3
    0    2
      5.30   0.00
      1.00   1.00
    1    1
      5.30   0.00
      1.00   1.00
    2    2
      4.50   0.00
      1.00   1.00
%endblock PAO.BasisAndPSlmax

MeshCutoff        150. Ry

ElectronicTemperature   0.1 eV
DM.MixingWeight         0.01
DM.NumberPulay          4

MD.TypeOfRun      CG
MD.NumCGsteps     0

WriteMullikenPop  1

%block DM.InitSpin
 1  +3.00     0.   0.   # atom,spin,theta,phi (deg)
 2  +1.50    90.   0.
 3  +3.00   180.   0.
%endblock DM.InitSpin

