SystemName          Oxygen
NumberOfAtoms       1

%block ChemicalSpeciesLabel
 1  8  O      # Species index, atomic number, species label
 2  -8  Os      # Species index, atomic number, species label
%endblock ChemicalSpeciesLabel

