SystemName          Oxygen
NumberOfAtoms       1
NumberOfSpecies     1

%block ChemicalSpeciesLabel
 1  8  O      # Species index, atomic number, species label
%endblock ChemicalSpeciesLabel

