SystemName        Water molecule
SystemLabel       h2o.conv   # Must be this file prefix (eg. h2o for h2o.fdf)
NumberOfAtoms     3
NumberOfSpecies   2

%block ChemicalSpeciesLabel
 1  8  O      # Species index, atomic number, species label
 2  1  H
%endblock ChemicalSpeciesLabel

AtomicCoordinatesFormat  Ang
%block AtomicCoordinatesAndAtomicSpecies
 0.000  0.000  0.000  1
 0.757  0.586  0.000  2
-0.757  0.586  0.000  2
%endblock AtomicCoordinatesAndAtomicSpecies

PAO.BasisSize     DZP
PAO.EnergyShift   0.05 eV

MD.TypeOfRun      forces
