SystemLabel  NH3-point03

%include NH3.fdf

