SystemLabel  NH3-point01

%include NH3.fdf

