SystemLabel  NH3-point02

%include NH3.fdf

