SystemName          Water molecule (bands)
SystemLabel         h2o_bands
NumberOfAtoms       3
NumberOfSpecies     2

MeshCutoff  50 Ry

%block ChemicalSpeciesLabel
 1  8  O      # Species index, atomic number, species label
 2  1  H
%endblock ChemicalSpeciesLabel

AtomicCoordinatesFormat  Ang
%block AtomicCoordinatesAndAtomicSpecies
 0.000  0.000  0.000  1
 0.757  0.586  0.000  2
-0.757  0.586  0.000  2
%endblock AtomicCoordinatesAndAtomicSpecies

LatticeConstant 1. Ang
%block LatticeVectors
  10.  0.  0.
   0. 10.  0.
   0.  0.  3.
%endblock

BandLinesScale ReciprocalLatticeVectors
%block BandLines
 1  0.000  0.000  0.000 \Gamma
20  0.000  0.000  0.500 K
%endblock BandLines
