system-label system
NumberOfSpecies  1
write-mulliken-pop 1

%block ChemicalSpeciesLabel
  1  11   Na
%endblock ChemicalSpeciesLabel
LatticeConstant 1.0 Ang
%block LatticeVectors
    11.95010460     0.00000000     0.00000000
     0.00000000     8.45000000     0.00000000
     0.00000000     0.00000000    23.90020920
%endblock LatticeVectors
NumberOfAtoms   25
AtomicCoordinatesFormat Ang
%block AtomicCoordinatesAndAtomicSpecies
     5.97505230     4.22500000     4.00000000  1
     0.00000000     0.00000000     0.00000000  1
     0.00000000     0.00000000    -5.97505230  1
     2.98752615     2.11250000    -5.97505230  1
     2.98752615     0.00000000    -2.98752615  1
     0.00000000     2.11250000    -2.98752615  1
     2.98752615     2.11250000     0.00000000  1
     0.00000000     4.22500000     0.00000000  1
     0.00000000     4.22500000    -5.97505230  1
     2.98752615     6.33750000    -5.97505230  1
     2.98752615     4.22500000    -2.98752615  1
     0.00000000     6.33750000    -2.98752615  1
     2.98752615     6.33750000     0.00000000  1
     5.97505230     0.00000000     0.00000000  1
     5.97505230     0.00000000    -5.97505230  1
     8.96257845     2.11250000    -5.97505230  1
     8.96257845     0.00000000    -2.98752615  1
     5.97505230     2.11250000    -2.98752615  1
     8.96257845     2.11250000     0.00000000  1
     5.97505230     4.22500000     0.00000000  1
     5.97505230     4.22500000    -5.97505230  1
     8.96257845     6.33750000    -5.97505230  1
     8.96257845     4.22500000    -2.98752615  1
     5.97505230     6.33750000    -2.98752615  1
     8.96257845     6.33750000     0.00000000  1
%endblock AtomicCoordinatesAndAtomicSpecies
# ----- Options follow ---
xc.functional LDA

COOP.Write T

PAO.BasisSize SZP
DM.NumberPulay         3
kgridcutoff 10.0 Ang

Meshcutoff 100.0 Ry
ElectronicTemperature  1000.0 K
Use-New-Diagk T
xc.authors CA
SaveHS T
